 
data_BTBT
 
_audit_creation_method            SHELXL-97 
_chemical_name_systematic 
; 
 ? 
; 
_chemical_name_common             ? 
_chemical_melting_point           ? 
_chemical_formula_moiety          ? 
_chemical_formula_sum 
 'C14 H8 S2' 
_chemical_formula_weight          240.32 
 
loop_ 
 _atom_type_symbol 
 _atom_type_description 
 _atom_type_scat_dispersion_real 
 _atom_type_scat_dispersion_imag 
 _atom_type_scat_source 
 'C'  'C'   0.0033   0.0016 
 'International Tables Vol C Tables 4.2.6.8 and 6.1.1.4' 
 'H'  'H'   0.0000   0.0000 
 'International Tables Vol C Tables 4.2.6.8 and 6.1.1.4' 
 'S'  'S'   0.1246   0.1234 
 'International Tables Vol C Tables 4.2.6.8 and 6.1.1.4' 
 
_symmetry_cell_setting             'monoclinic' 
_symmetry_space_group_name_H-M     'P21/a' 
 
loop_ 
 _symmetry_equiv_pos_as_xyz 
 'x, y, z' 
 '-x+1/2, y+1/2, -z' 
 '-x, -y, -z' 
 'x-1/2, -y-1/2, z' 
 
_cell_length_a                    8.1018(15) 
_cell_length_b                    5.8927(8) 
_cell_length_c                    11.9073(19) 
_cell_angle_alpha                 90.00 
_cell_angle_beta                  106.443(6) 
_cell_angle_gamma                 90.00 
_cell_volume                      545.22(15) 
_cell_formula_units_Z             2 
_cell_measurement_temperature     293(2) 
_cell_measurement_reflns_used     3404 
_cell_measurement_theta_min       6.910
_cell_measurement_theta_max       55.020 
 
_exptl_crystal_description        'platelet' 
_exptl_crystal_colour             'colorless'
_exptl_crystal_size_max           0.60 
_exptl_crystal_size_mid           0.60 
_exptl_crystal_size_min           0.05 
_exptl_crystal_density_meas       ? 
_exptl_crystal_density_diffrn     1.464 
_exptl_crystal_density_method     'not measured' 
_exptl_crystal_F_000              248 
_exptl_absorpt_coefficient_mu     0.451 
_exptl_absorpt_correction_type    'Multi-scan' 
_exptl_absorpt_correction_T_min   0.7430 
_exptl_absorpt_correction_T_max   0.9778 
_exptl_absorpt_process_details    'Jacobson, R. (1998) Private communication' 
 
_exptl_special_details 
; 
 ? 
; 
 
_diffrn_ambient_temperature       293(2) 
_diffrn_radiation_wavelength      0.71075 
_diffrn_radiation_type            MoK\a 
_diffrn_radiation_source          'fine-focus sealed tube' 
_diffrn_radiation_monochromator   graphite 
_diffrn_measurement_device_type   'Rigaku RAXIS-RAPID' 
_diffrn_measurement_method        \w
_diffrn_detector_area_resol_mean  10.00 
_diffrn_standards_number          ? 
_diffrn_standards_interval_count  ? 
_diffrn_standards_interval_time   ? 
_diffrn_standards_decay_%         ? 
_diffrn_reflns_number             4935 
_diffrn_reflns_av_R_equivalents   0.0883 
_diffrn_reflns_av_sigmaI/netI     0.0880 
_diffrn_reflns_limit_h_min        -10 
_diffrn_reflns_limit_h_max        10 
_diffrn_reflns_limit_k_min        -7 
_diffrn_reflns_limit_k_max        7 
_diffrn_reflns_limit_l_min        -15 
_diffrn_reflns_limit_l_max        15 
_diffrn_reflns_theta_min          3.57 
_diffrn_reflns_theta_max          27.49 
_reflns_number_total              1244 
_reflns_number_gt                 989 
_reflns_threshold_expression      >2sigma(I) 
 
_computing_data_collection        'RIGAKU Crystal Clear' 
_computing_cell_refinement        'RIGAKU Crystal Clear'  
_computing_data_reduction         'RIGAKU Crystal Clear'  
_computing_structure_solution     'SIR2004' 
_computing_structure_refinement   'SHELXL-97 (Sheldrick, 1997)' 
_computing_molecular_graphics     ? 
_computing_publication_material   ? 
 
_refine_special_details 
; 
 Refinement of F^2^ against ALL reflections.  The weighted R-factor wR and 
 goodness of fit S are based on F^2^, conventional R-factors R are based 
 on F, with F set to zero for negative F^2^. The threshold expression of 
 F^2^ > 2sigma(F^2^) is used only for calculating R-factors(gt) etc. and is 
 not relevant to the choice of reflections for refinement.  R-factors based 
 on F^2^ are statistically about twice as large as those based on F, and R- 
 factors based on ALL data will be even larger. 
; 
 
_refine_ls_structure_factor_coef  Fsqd  
_refine_ls_matrix_type            full 
_refine_ls_weighting_scheme       calc  
_refine_ls_weighting_details 
 'calc w=1/[\s^2^(Fo^2^)+(0.1000P)^2^+0.0000P] where P=(Fo^2^+2Fc^2^)/3' 
_atom_sites_solution_primary      direct 
_atom_sites_solution_secondary    difmap 
_atom_sites_solution_hydrogens    geom 
_refine_ls_hydrogen_treatment     mixed 
_refine_ls_extinction_method      none 
_refine_ls_extinction_coef        ? 
_refine_ls_number_reflns          1244 
_refine_ls_number_parameters      89 
_refine_ls_number_restraints      0 
_refine_ls_R_factor_all           0.0519 
_refine_ls_R_factor_gt            0.0441 
_refine_ls_wR_factor_ref          0.1288 
_refine_ls_wR_factor_gt           0.1188 
_refine_ls_goodness_of_fit_ref    0.807 
_refine_ls_restrained_S_all       0.807 
_refine_ls_shift/su_max           0.000 
_refine_ls_shift/su_mean          0.000 
 
loop_ 
 _atom_site_label 
 _atom_site_type_symbol 
 _atom_site_fract_x 
 _atom_site_fract_y 
 _atom_site_fract_z 
 _atom_site_U_iso_or_equiv 
 _atom_site_adp_type 
 _atom_site_occupancy 
 _atom_site_symetry_multiplicity 
 _atom_site_calc_flag 
 _atom_site_refinement_flags 
 _atom_site_disorder_assembly 
 _atom_site_disorder_group 
S1 S 0.85769(6) 0.21732(8) 0.42047(4) 0.0488(2) Uani 1 1 d . . . 
C1 C 1.0203(3) 0.7372(4) 0.26922(19) 0.0504(5) Uani 1 1 d . . . 
H1 H 1.081(3) 0.856(3) 0.2957(16) 0.041(5) Uiso 1 1 d . . . 
C2 C 0.8889(2) 0.3869(3) 0.30794(15) 0.0437(4) Uani 1 1 d . . . 
C3 C 0.9722(2) 0.4080(3) 0.52459(15) 0.0399(4) Uani 1 1 d . . . 
C4 C 0.9830(2) 0.5866(3) 0.34963(14) 0.0409(4) Uani 1 1 d . . . 
C5 C 0.8305(3) 0.3388(4) 0.18805(18) 0.0568(5) Uani 1 1 d . . . 
H5 H 0.769(3) 0.191(4) 0.1578(19) 0.061(6) Uiso 1 1 d . . . 
C6 C 0.9620(3) 0.6892(4) 0.15099(18) 0.0613(6) Uani 1 1 d . . . 
H6 H 0.992(3) 0.793(4) 0.097(2) 0.069(7) Uiso 1 1 d . . . 
C7 C 0.8688(3) 0.4922(4) 0.11119(18) 0.0634(6) Uani 1 1 d . . . 
H7 H 0.831(3) 0.465(4) 0.029(2) 0.074(7) Uiso 1 1 d . . . 
 
loop_ 
 _atom_site_aniso_label 
 _atom_site_aniso_U_11 
 _atom_site_aniso_U_22 
 _atom_site_aniso_U_33 
 _atom_site_aniso_U_23 
 _atom_site_aniso_U_13 
 _atom_site_aniso_U_12 
S1 0.0551(4) 0.0400(4) 0.0497(4) -0.00250(17) 0.0123(3) -0.01062(17) 
C1 0.0535(12) 0.0486(10) 0.0517(11) 0.0040(9) 0.0194(9) -0.0043(8) 
C2 0.0422(9) 0.0418(9) 0.0468(9) -0.0003(7) 0.0122(7) 0.0025(7) 
C3 0.0375(9) 0.0370(8) 0.0471(9) -0.0031(7) 0.0151(7) -0.0011(6) 
C4 0.0390(9) 0.0404(8) 0.0451(9) 0.0001(7) 0.0147(7) 0.0030(7) 
C5 0.0590(13) 0.0564(11) 0.0524(11) -0.0088(9) 0.0112(9) 0.0019(10) 
C6 0.0675(15) 0.0669(13) 0.0549(12) 0.0129(10) 0.0257(10) 0.0065(11) 
C7 0.0729(14) 0.0728(14) 0.0438(10) -0.0017(10) 0.0152(10) 0.0064(12) 
 
_geom_special_details 
; 
 All esds (except the esd in the dihedral angle between two l.s. planes) 
 are estimated using the full covariance matrix.  The cell esds are taken 
 into account individually in the estimation of esds in distances, angles 
 and torsion angles; correlations between esds in cell parameters are only 
 used when they are defined by crystal symmetry.  An approximate (isotropic) 
 treatment of cell esds is used for estimating esds involving l.s. planes. 
; 
 
loop_ 
 _geom_bond_atom_site_label_1 
 _geom_bond_atom_site_label_2 
 _geom_bond_distance 
 _geom_bond_site_symmetry_2 
 _geom_bond_publ_flag 
S1 C3 1.7349(17) . ? 
S1 C2 1.7463(19) . ? 
C1 C6 1.381(3) . ? 
C1 C4 1.400(3) . ? 
C2 C5 1.400(3) . ? 
C2 C4 1.413(2) . ? 
C3 C3 1.367(3) 3_766 ? 
C3 C4 1.438(2) 3_766 ? 
C4 C3 1.438(2) 3_766 ? 
C5 C7 1.382(3) . ? 
C6 C7 1.393(3) . ? 
 
loop_ 
 _geom_angle_atom_site_label_1 
 _geom_angle_atom_site_label_2 
 _geom_angle_atom_site_label_3 
 _geom_angle 
 _geom_angle_site_symmetry_1 
 _geom_angle_site_symmetry_3 
 _geom_angle_publ_flag 
C3 S1 C2 90.76(8) . . ? 
C6 C1 C4 119.32(19) . . ? 
C5 C2 C4 121.31(18) . . ? 
C5 C2 S1 125.87(16) . . ? 
C4 C2 S1 112.82(13) . . ? 
C3 C3 C4 114.33(19) 3_766 3_766 ? 
C3 C3 S1 112.44(17) 3_766 . ? 
C4 C3 S1 133.22(13) 3_766 . ? 
C1 C4 C2 119.14(17) . . ? 
C1 C4 C3 131.20(17) . 3_766 ? 
C2 C4 C3 109.64(15) . 3_766 ? 
C7 C5 C2 117.9(2) . . ? 
C1 C6 C7 120.9(2) . . ? 
C5 C7 C6 121.41(19) . . ? 
 
loop_ 
 _geom_torsion_atom_site_label_1 
 _geom_torsion_atom_site_label_2 
 _geom_torsion_atom_site_label_3 
 _geom_torsion_atom_site_label_4 
 _geom_torsion 
 _geom_torsion_site_symmetry_1 
 _geom_torsion_site_symmetry_2 
 _geom_torsion_site_symmetry_3 
 _geom_torsion_site_symmetry_4 
 _geom_torsion_publ_flag 
C3 S1 C2 C5 179.02(18) . . . . ? 
C3 S1 C2 C4 -0.81(14) . . . . ? 
C2 S1 C3 C3 1.08(18) . . . 3_766 ? 
C2 S1 C3 C4 179.70(17) . . . 3_766 ? 
C6 C1 C4 C2 1.1(3) . . . . ? 
C6 C1 C4 C3 179.29(18) . . . 3_766 ? 
C5 C2 C4 C1 -0.9(3) . . . . ? 
S1 C2 C4 C1 178.94(14) . . . . ? 
C5 C2 C4 C3 -179.49(17) . . . 3_766 ? 
S1 C2 C4 C3 0.35(18) . . . 3_766 ? 
C4 C2 C5 C7 0.5(3) . . . . ? 
S1 C2 C5 C7 -179.35(15) . . . . ? 
C4 C1 C6 C7 -0.8(3) . . . . ? 
C2 C5 C7 C6 -0.2(3) . . . . ? 
C1 C6 C7 C5 0.4(4) . . . . ? 
 
_diffrn_measured_fraction_theta_max    0.994 
_diffrn_reflns_theta_full              27.49 
_diffrn_measured_fraction_theta_full   0.994 
_refine_diff_density_max    0.294 
_refine_diff_density_min   -0.221 
_refine_diff_density_rms    0.054 
