data_C8-BTBT
_audit_creation_date                  'Sat Feb 19 21:12:58 2028'
_audit_creation_method                'by teXsan'
_audit_update_record                   ?
#------------------------------------------------------------------------------
# PROCESSING SUMMARY (IUCr Office Use Only) 
_journal_date_recd_electronic          ?
_journal_date_from_coeditor            ?
_journal_date_accepted                 ?
_journal_coeditor_code                 ?
#------------------------------------------------------------------------------
# SUBMISSION DETAILS 
_publ_contact_author_name             ' ENTER NAME'
_publ_contact_author_address
;
    ENTER ADDRESS
;
_publ_contact_author_email            ' ENTER EMAIL ADDRESS '
_publ_contact_author_fax              ' ENTER FAX NUMBER '
_publ_contact_author_phone            ' ENTER PHONE NUMBER '
_publ_contact_letter
;
    ENTER TEXT OF LETTER
;
_publ_requested_journal               ' ENTER JOURNAL NAME HERE'
_publ_requested_category              ' CHOOSE FI FM FO CI CM CO or AD'

_publ_requested_coeditor_name          ?
#------------------------------------------------------------------------------
# TITLE AND AUTHOR LIST 
loop_
_publ_author_name
_publ_author_address
' FIRST AUTHORS NAME '
;
  FIRST AUTHORS ADDRESS
;
#------------------------------------------------------------------------------
# TEXT 

_publ_section_references
;
    ENTER OTHER REFERENCES
Molecular Structure Corporation, Rigaku Corporation. (2000). teXsan. 
Single Crystal Structure Analysis Software. Version 1.11.
MSC, 3200 Research Forest Drive, The Woodlands, TX 77381, USA.
Rigaku, 3-9-12 Akishima, Tokyo, Japan.
;
#------------------------------------------------------------------------------
# CHEMICAL DATA 
_chemical_formula_sum                  'C30 H40 S2 '
_chemical_formula_moiety               'C30 H40 S2 '
_chemical_formula_weight               464.77
_chemical_melting_point                ?
#------------------------------------------------------------------------------
# CRYSTAL DATA 
_symmetry_cell_setting                 monoclinic
_symmetry_space_group_name_H-M        'P 1 21/a 1'
_symmetry_Int_Tables_number            14
loop_
_symmetry_equiv_pos_as_xyz
x,y,z
1/2-x,1/2+y,-z
-x,-y,-z
1/2+x,1/2-y,z
_cell_length_a                         5.927(7)
_cell_length_b                         7.88(1)
_cell_length_c                         29.18(4)
_cell_angle_alpha                      90.000(4)
_cell_angle_beta                       92.443(4)
_cell_angle_gamma                      90.000(4)
_cell_volume                           1362(3)
_cell_formula_units_Z                  2
_cell_measurement_reflns_used          3405
_cell_measurement_theta_min            3.3
_cell_measurement_theta_max            27.5
_cell_measurement_temperature          293.2
#------------------------------------------------------------------------------
_exptl_crystal_description            'Platelet'
_exptl_crystal_colour                 'Colorless'
_exptl_crystal_size_max                0.500
_exptl_crystal_size_mid                0.500
_exptl_crystal_size_min                0.100
_exptl_crystal_size_rad                ?
_exptl_crystal_density_diffrn          1.133
_exptl_crystal_density_meas            ?
_exptl_crystal_density_method         'not measured'
_exptl_absorpt_coefficient_mu          0.210
_exptl_absorpt_correction_type         multi-scan
_exptl_absorpt_process_details         '(Higashi, 1995)' 
_exptl_absorpt_correction_T_min        0.979
_exptl_absorpt_correction_T_max        0.979
#------------------------------------------------------------------------------
# EXPERIMENTAL DATA 
_diffrn_radiation_type                'Mo K\a'
_diffrn_radiation_wavelength           0.7107
_diffrn_measurement_device_type       'Rigaku/MSC Mercury CCD'
_diffrn_measurement_method             \w
_diffrn_detector_area_resol_mean       14.71
_diffrn_reflns_number                  8141
_diffrn_reflns_av_R_equivalents        0.077
_diffrn_reflns_theta_max               27.48
_diffrn_measured_fraction_theta_max    0.8783
_diffrn_reflns_theta_full              27.48
_diffrn_measured_fraction_theta_full   0.8783
_diffrn_reflns_limit_h_min             -7
_diffrn_reflns_limit_h_max             5
_diffrn_reflns_limit_k_min             -10
_diffrn_reflns_limit_k_max             6
_diffrn_reflns_limit_l_min             -37
_diffrn_reflns_limit_l_max             31
#------------------------------------------------------------------------------
# REFINEMENT DATA 
_refine_special_details
;
Refinement using reflections with F^2^ > 2.0 sigma(F^2^). The weighted 
R-factor (wR) and goodness of fit (S) are based on F^2^. R-factor (gt) are 
based on F. The threshold expression of F^2^ > 2.0 sigma(F^2^) is used only 
for calculating R-factor (gt).
;
_reflns_number_total                   2743
_reflns_number_gt                      1268
_reflns_threshold_expression           F^2^>2.0\s(F^2^)
_refine_ls_structure_factor_coef       Fsqd
_refine_ls_R_factor_gt                 0.0700
_refine_ls_wR_factor_ref               0.1519
_refine_ls_hydrogen_treatment          noref
_refine_ls_number_reflns               1268
_refine_ls_number_parameters           145
_refine_ls_goodness_of_fit_ref         1.329
_refine_ls_weighting_scheme            calc
_refine_ls_weighting_details
   'w = 1/[\s^2^(Fo^2^) + (0.03000(Max(Fo^2^,0) + 2Fc^2^)/3)^2^]'
_refine_ls_shift/su_max                0.0002
_refine_diff_density_max               0.36
_refine_diff_density_min               -0.46
_refine_ls_extinction_method           none
_refine_ls_extinction_coef             ?
_refine_ls_abs_structure_details       ?

loop_
_atom_type_symbol
_atom_type_description
_atom_type_scat_dispersion_real
_atom_type_scat_dispersion_imag
_atom_type_scat_source
  'C' 'C'  0.003 0.002 
;International Tables for Crystallography
(1992, Vol. C, Tables 4.2.6.8 and 6.1.1.1)
;
  'H' 'H'  0.000 0.000 
;International Tables for Crystallography
(1992, Vol. C, Table 6.1.1.2)
;
  'S' 'S'  0.125 0.123 
;International Tables for Crystallography
(1992, Vol. C, Tables 4.2.6.8 and 6.1.1.1)
;
#------------------------------------------------------------------------------
# ATOMIC COORDINATES AND DISPLACEMENT PARAMETERS 
loop_
_atom_site_label
_atom_site_type_symbol
_atom_site_fract_x
_atom_site_fract_y
_atom_site_fract_z
_atom_site_U_iso_or_equiv
_atom_site_adp_type
_atom_site_occupancy
_atom_site_calc_flag
_atom_site_refinement_flags
_atom_site_disorder_assembly
_atom_site_disorder_group
 S(1)   S  0.2761(2)   0.1127(2)   0.46929(5)  0.0480(4)   Uani 1.00 d . . .
 C(1)   C  0.0884(7)   0.0511(6)   0.4242(2)   0.044(2)    Uani 1.00 d . . .
 C(2)   C  0.1129(7)   0.0776(6)   0.3787(2)   0.054(2)    Uani 1.00 d . . .
 C(3)   C  -0.0511(8)  0.0207(7)   0.3459(2)   0.057(2)    Uani 1.00 d . . .
 C(4)   C  -0.2407(8)  -0.0648(6)  0.3632(2)   0.060(2)    Uani 1.00 d . . .
 C(5)   C  -0.2692(7)  -0.0909(6)  0.4086(2)   0.050(2)    Uani 1.00 d . . .
 C(6)   C  -0.1085(7)  -0.0312(5)  0.4420(2)   0.044(2)    Uani 1.00 d . . .
 C(7)   C  -0.0965(6)  -0.0367(5)  0.4898(2)   0.040(1)    Uani 1.00 d . . .
 C(8)   C  -0.0317(10) 0.0563(8)   0.2965(2)   0.076(2)    Uani 1.00 d . . .
 C(9)   C  0.1623(10)  -0.0243(7)  0.2724(2)   0.072(2)    Uani 1.00 d . . .
 C(10)  C  0.183(1)    0.0302(8)   0.2234(2)   0.080(2)    Uani 1.00 d . . .
 C(11)  C  0.375(1)    -0.0365(9)  0.1983(2)   0.092(3)    Uani 1.00 d . . .
 C(12)  C  0.395(1)    0.0276(9)   0.1501(3)   0.104(3)    Uani 1.00 d . . .
 C(13)  C  0.584(1)    -0.036(1)   0.1230(3)   0.120(3)    Uani 1.00 d . . .
 C(14)  C  0.597(1)    0.027(1)    0.0754(3)   0.147(4)    Uani 1.00 d . . .
 C(15)  C  0.782(2)    -0.032(2)   0.0482(3)   0.185(6)    Uani 1.00 d . . .
 H(1)   H  0.2480      0.1389      0.3677      0.0552      Uiso 1.00 calc . . .
 H(2)   H  -0.3535     -0.1075     0.3416      0.0631      Uiso 1.00 calc . . .
 H(3)   H  -0.4025     -0.1526     0.4184      0.0581      Uiso 1.00 calc . . .
 H(4)   H  -0.0123     0.1826      0.2932      0.0840      Uiso 1.00 calc . . .
 H(5)   H  -0.1726     0.0326      0.2807      0.0840      Uiso 1.00 calc . . .
 H(6)   H  0.3012      -0.0079     0.2889      0.0833      Uiso 1.00 calc . . .
 H(7)   H  0.1344      -0.1477     0.2715      0.0833      Uiso 1.00 calc . . .
 H(8)   H  0.1986      0.1554      0.2248      0.0950      Uiso 1.00 calc . . .
 H(9)   H  0.0427      0.0094      0.2071      0.0950      Uiso 1.00 calc . . .
 H(10)  H  0.5147      -0.0201     0.2156      0.1121      Uiso 1.00 calc . . .
 H(11)  H  0.3561      -0.1614     0.1960      0.1121      Uiso 1.00 calc . . .
 H(12)  H  0.4182      0.1538      0.1519      0.1232      Uiso 1.00 calc . . .
 H(13)  H  0.2554      0.0148      0.1325      0.1232      Uiso 1.00 calc . . .
 H(14)  H  0.5659      -0.1634     0.1205      0.1443      Uiso 1.00 calc . . .
 H(15)  H  0.7280      -0.0230     0.1394      0.1443      Uiso 1.00 calc . . .
 H(16)  H  0.6213      0.1547      0.0767      0.1702      Uiso 1.00 calc . . .
 H(17)  H  0.4521      0.0184      0.0582      0.1702      Uiso 1.00 calc . . .
 H(18)  H  0.7502      -0.1625     0.0441      0.1966      Uiso 1.00 calc . . .
 H(19)  H  0.9199      -0.0271     0.0629      0.1966      Uiso 1.00 calc . . .
 H(20)  H  0.7806      0.0060      0.0176      0.1966      Uiso 1.00 calc . . .

loop_
_atom_site_aniso_label
_atom_site_aniso_U_11
_atom_site_aniso_U_22
_atom_site_aniso_U_33
_atom_site_aniso_U_12
_atom_site_aniso_U_13
_atom_site_aniso_U_23
 S(1)   0.0323(6)   0.0394(8)   0.072(1)    -0.0079(5)  0.0043(6)   0.0013(7)  
 C(1)   0.033(2)    0.039(3)    0.060(4)    0.004(2)    0.001(2)    -0.001(3)  
 C(2)   0.039(3)    0.049(3)    0.074(4)    -0.000(2)   0.001(3)    0.009(3)   
 C(3)   0.046(3)    0.065(4)    0.061(4)    0.014(3)    -0.001(3)   0.003(3)   
 C(4)   0.041(3)    0.062(4)    0.077(5)    0.002(3)    -0.005(3)   -0.011(3)  
 C(5)   0.036(3)    0.038(3)    0.076(4)    -0.006(2)   -0.001(3)   -0.010(3)  
 C(6)   0.029(2)    0.031(3)    0.072(4)    -0.000(2)   0.004(2)    -0.006(2)  
 C(7)   0.028(2)    0.031(3)    0.060(4)    -0.003(2)   0.005(2)    0.003(2)   
 C(8)   0.063(4)    0.094(5)    0.069(4)    0.004(3)    -0.007(3)   0.015(4)   
 C(9)   0.069(4)    0.073(5)    0.072(5)    0.001(3)    0.003(3)    0.003(3)   
 C(10)  0.077(4)    0.110(5)    0.053(4)    -0.001(3)   -0.002(3)   0.000(4)   
 C(11)  0.084(5)    0.139(6)    0.054(5)    0.001(4)    0.006(4)    0.001(4)   
 C(12)  0.091(5)    0.152(7)    0.069(6)    -0.004(4)   0.010(4)    -0.004(5)  
 C(13)  0.102(6)    0.193(8)    0.063(6)    0.006(5)    -0.004(4)   0.002(5)   
 C(14)  0.113(7)    0.27(1)     0.063(6)    0.011(6)    0.021(5)    0.012(6)   
 C(15)  0.138(9)    0.30(1)     0.118(9)    0.006(7)    0.028(7)    -0.002(8)  
#------------------------------------------------------------------------------
_computing_data_collection            'CRYSTALCLEAR'
_computing_cell_refinement            'CRYSTALCLEAR'
_computing_data_reduction             'teXsan Ver. 1.11'
_computing_structure_solution          SIR92
_computing_structure_refinement       'teXsan Ver. 1.10'
_computing_publication_material       'teXsan Ver. 1.11'
_computing_molecular_graphics          ?
#------------------------------------------------------------------------------
_geom_special_details
;
 ?
;
loop_
_geom_bond_atom_site_label_1
_geom_bond_atom_site_label_2
_geom_bond_distance
_geom_bond_site_symmetry_1
_geom_bond_site_symmetry_2
_geom_bond_publ_flag
 S(1)      C(1)      1.755(5)   . . yes
 S(1)      C(7)      1.739(5)   . 3_556 yes
 C(1)      C(2)      1.359(7)   . . yes
 C(1)      C(6)      1.450(6)   . . yes
 C(2)      C(3)      1.408(7)   . . yes
 C(3)      C(4)      1.422(7)   . . yes
 C(3)      C(8)      1.478(8)   . . yes
 C(4)      C(5)      1.357(7)   . . yes
 C(5)      C(6)      1.415(6)   . . yes
 C(6)      C(7)      1.395(7)   . . yes
 C(7)      C(7)      1.392(8)   . 3_556 yes
 C(8)      C(9)      1.514(8)   . . yes
 C(9)      C(10)     1.500(7)   . . yes
 C(10)     C(11)     1.480(8)   . . yes
 C(11)     C(12)     1.504(9)   . . yes
 C(12)     C(13)     1.488(9)   . . yes
 C(13)     C(14)     1.482(10)  . . yes
 C(14)     C(15)     1.46(1)    . . yes
#------------------------------------------------------------------------------
loop_
_geom_angle_atom_site_label_1
_geom_angle_atom_site_label_2
_geom_angle_atom_site_label_3
_geom_angle
_geom_angle_site_symmetry_1
_geom_angle_site_symmetry_2
_geom_angle_site_symmetry_3
_geom_angle_publ_flag
   C(1)      S(1)      C(7)      91.8(2)    . . 3_556 yes
   S(1)      C(1)      C(2)      126.8(4)   . . . yes
   S(1)      C(1)      C(6)      110.5(4)   . . . yes
   C(2)      C(1)      C(6)      122.7(5)   . . . yes
   C(1)      C(2)      C(3)      121.1(5)   . . . yes
   C(2)      C(3)      C(4)      116.3(5)   . . . yes
   C(2)      C(3)      C(8)      121.5(5)   . . . yes
   C(4)      C(3)      C(8)      122.2(5)   . . . yes
   C(3)      C(4)      C(5)      123.5(5)   . . . yes
   C(4)      C(5)      C(6)      121.0(5)   . . . yes
   C(1)      C(6)      C(5)      115.5(5)   . . . yes
   C(1)      C(6)      C(7)      111.4(4)   . . . yes
   C(5)      C(6)      C(7)      133.2(4)   . . . yes
   S(1)      C(7)      C(6)      133.6(3)   3_556 . . yes
   S(1)      C(7)      C(7)      111.5(5)   3_556 . 3_556 yes
   C(6)      C(7)      C(7)      114.8(5)   . . 3_556 yes
   C(3)      C(8)      C(9)      117.8(5)   . . . yes
   C(8)      C(9)      C(10)     114.6(5)   . . . yes
   C(9)      C(10)     C(11)     117.8(6)   . . . yes
   C(10)     C(11)     C(12)     115.9(6)   . . . yes
   C(11)     C(12)     C(13)     118.1(7)   . . . yes
   C(12)     C(13)     C(14)     116.9(8)   . . . yes
   C(13)     C(14)     C(15)     118.2(9)   . . . yes
#------------------------------------------------------------------------------
loop_
_geom_torsion_atom_site_label_1
_geom_torsion_atom_site_label_2
_geom_torsion_atom_site_label_3
_geom_torsion_atom_site_label_4
_geom_torsion
_geom_torsion_site_symmetry_1
_geom_torsion_site_symmetry_2
_geom_torsion_site_symmetry_3
_geom_torsion_site_symmetry_4
_geom_torsion_publ_flag
 S(1)      C(1)      C(2)      C(3)      179.8(4)   . . . . yes
 S(1)      C(1)      C(6)      C(5)      -178.2(3)  . . . . yes
 S(1)      C(1)      C(6)      C(7)      0.8(5)     . . . . yes
 S(1)      C(7)      C(6)      C(1)      -178.6(4)  . 3_556 3_556 3_556 yes
 S(1)      C(7)      C(6)      C(5)      2.5(9)     . 3_556 3_556 3_556 yes
 S(1)      C(7)      C(7)      S(1)      -180.0     . 3_556 . 3_556 yes
 S(1)      C(7)      C(7)      C(6)      -1.3(7)    . 3_556 . . yes
 C(1)      S(1)      C(7)      C(6)      179.9(5)   . . 3_556 3_556 yes
 C(1)      S(1)      C(7)      C(7)      1.5(5)     . . 3_556 . yes
 C(1)      C(2)      C(3)      C(4)      -0.0(7)    . . . . yes
 C(1)      C(2)      C(3)      C(8)      176.9(5)   . . . . yes
 C(1)      C(6)      C(5)      C(4)      -2.6(7)    . . . . yes
 C(1)      C(6)      C(7)      C(7)      0.3(7)     . . . 3_556 yes
 C(2)      C(1)      S(1)      C(7)      177.0(5)   . . . 3_556 yes
 C(2)      C(1)      C(6)      C(5)      3.3(7)     . . . . yes
 C(2)      C(1)      C(6)      C(7)      -177.6(5)  . . . . yes
 C(2)      C(3)      C(4)      C(5)      0.7(8)     . . . . yes
 C(2)      C(3)      C(8)      C(9)      65.8(8)    . . . . yes
 C(3)      C(2)      C(1)      C(6)      -2.1(8)    . . . . yes
 C(3)      C(4)      C(5)      C(6)      0.7(8)     . . . . yes
 C(3)      C(8)      C(9)      C(10)     -174.8(5)  . . . . yes
 C(4)      C(3)      C(8)      C(9)      -117.5(6)  . . . . yes
 C(4)      C(5)      C(6)      C(7)      178.6(5)   . . . . yes
 C(5)      C(4)      C(3)      C(8)      -176.2(5)  . . . . yes
 C(5)      C(6)      C(7)      C(7)      179.2(5)   . . . 3_556 yes
 C(6)      C(1)      S(1)      C(7)      -1.3(3)    . . . 3_556 yes
 C(6)      C(7)      C(7)      C(6)      180.0      . . 3_556 3_556 yes
 C(8)      C(9)      C(10)     C(11)     176.9(5)   . . . . yes
 C(9)      C(10)     C(11)     C(12)     -177.4(6)  . . . . yes
 C(10)     C(11)     C(12)     C(13)     -179.4(6)  . . . . yes
 C(11)     C(12)     C(13)     C(14)     179.1(7)   . . . . yes
 C(12)     C(13)     C(14)     C(15)     179.5(8)   . . . . yes
 C(12)     C(13)     C(14)     C(15)     179.5(8)   . . . . yes
#------------------------------------------------------------------------------
loop_
_geom_contact_atom_site_label_1
_geom_contact_atom_site_label_2
_geom_contact_distance
_geom_contact_site_symmetry_1
_geom_contact_site_symmetry_2
_geom_contact_publ_flag
 S(1)      C(6)      3.469(4)   . 4_555 yes
 S(1)      C(7)      3.473(4)   . 4_555 yes
 S(1)      C(1)      3.520(5)   . 4_555 yes
 S(1)      C(7)      3.532(5)   . 2_556 yes
#------------------------------------------------------------------------------
#END
