 
data_NDT 
 
_audit_creation_method            SHELXL-97 
_chemical_name_systematic 
; 
 NDT 
; 
_chemical_name_common             NDT 
_chemical_melting_point           ? 
_chemical_formula_moiety          'C14 H8 S2' 
_chemical_formula_sum 
 'C14 H8 S2' 
_chemical_formula_weight          240.32 
 
loop_ 
 _atom_type_symbol 
 _atom_type_description 
 _atom_type_scat_dispersion_real 
 _atom_type_scat_dispersion_imag 
 _atom_type_scat_source 
 'C'  'C'   0.0033   0.0016 
 'International Tables Vol C Tables 4.2.6.8 and 6.1.1.4' 
 'H'  'H'   0.0000   0.0000 
 'International Tables Vol C Tables 4.2.6.8 and 6.1.1.4' 
 'S'  'S'   0.1246   0.1234 
 'International Tables Vol C Tables 4.2.6.8 and 6.1.1.4' 
 
_symmetry_cell_setting            monoclinic 
_symmetry_space_group_name_H-M    'P 21/c'
 
loop_ 
 _symmetry_equiv_pos_as_xyz 
 'x, y, z' 
 '-x, y+1/2, -z+1/2' 
 '-x, -y, -z' 
 'x, -y-1/2, z-1/2' 
 
_cell_length_a                    17.973(5) 
_cell_length_b                    7.4851(18) 
_cell_length_c                    8.244(2) 
_cell_angle_alpha                 90.00 
_cell_angle_beta                  93.482(15) 
_cell_angle_gamma                 90.00 
_cell_volume                      1107.0(5) 
_cell_formula_units_Z             4 
_cell_measurement_temperature     293(2) 
_cell_measurement_reflns_used     2589 
_cell_measurement_theta_min       3.3 
_cell_measurement_theta_max       27.5 
 
_exptl_crystal_description        'Platelet' 
_exptl_crystal_colour             'Colorless' 
_exptl_crystal_size_max           0.5
_exptl_crystal_size_mid           0.5
_exptl_crystal_size_min           0.05 
_exptl_crystal_density_meas       ? 
_exptl_crystal_density_diffrn     1.442 
_exptl_crystal_density_method     'not measured' 
_exptl_crystal_F_000              496 
_exptl_absorpt_coefficient_mu     0.444 
_exptl_absorpt_correction_type    none 
_exptl_absorpt_correction_T_min   ? 
_exptl_absorpt_correction_T_max   ? 
_exptl_absorpt_process_details    ? 
 
_exptl_special_details 
; 
 ? 
; 
 
_diffrn_ambient_temperature       293(2) 
_diffrn_radiation_wavelength      0.71070 
_diffrn_radiation_type            MoK\a 
_diffrn_radiation_source          'fine-focus sealed tube' 
_diffrn_radiation_monochromator   graphite 
_diffrn_measurement_device_type   'Rigaku/MSC Mercury CCD'  
_diffrn_measurement_method        \w 
_diffrn_detector_area_resol_mean  14.71 
_diffrn_standards_number          ? 
_diffrn_standards_interval_count  ? 
_diffrn_standards_interval_time   ? 
_diffrn_standards_decay_%         ? 
_diffrn_reflns_number             7728 
_diffrn_reflns_av_R_equivalents   0.0758 
_diffrn_reflns_av_sigmaI/netI     0.0734 
_diffrn_reflns_limit_h_min        -23 
_diffrn_reflns_limit_h_max        19 
_diffrn_reflns_limit_k_min        -7 
_diffrn_reflns_limit_k_max        9 
_diffrn_reflns_limit_l_min        -10 
_diffrn_reflns_limit_l_max        10 
_diffrn_reflns_theta_min          3.54 
_diffrn_reflns_theta_max          27.46 
_reflns_number_total              2401 
_reflns_number_gt                 1346 
_reflns_threshold_expression      >2sigma(I) 
 
_computing_data_collection        'CRYSTALCLEAR' 
_computing_cell_refinement        'CRYSTALCLEAR' 
_computing_data_reduction         'teXsan Ver. 1.11'  
_computing_structure_solution     'SHELXS-97 (Sheldrick, 1990)' 
_computing_structure_refinement   'SHELXL-97 (Sheldrick, 1997)' 
_computing_molecular_graphics     ? 
_computing_publication_material   ? 
 
_refine_special_details 
; 
 Refinement of F^2^ against ALL reflections.  The weighted R-factor wR and 
 goodness of fit S are based on F^2^, conventional R-factors R are based 
 on F, with F set to zero for negative F^2^. The threshold expression of 
 F^2^ > 2sigma(F^2^) is used only for calculating R-factors(gt) etc. and is 
 not relevant to the choice of reflections for refinement.  R-factors based 
 on F^2^ are statistically about twice as large as those based on F, and R- 
 factors based on ALL data will be even larger. 
; 
 
_refine_ls_structure_factor_coef  Fsqd  
_refine_ls_matrix_type            full 
_refine_ls_weighting_scheme       calc  
_refine_ls_weighting_details 
 'calc w=1/[\s^2^(Fo^2^)+(0.2000P)^2^+0.0000P] where P=(Fo^2^+2Fc^2^)/3' 
_atom_sites_solution_primary      direct 
_atom_sites_solution_secondary    difmap 
_atom_sites_solution_hydrogens    geom 
_refine_ls_hydrogen_treatment     noref 
_refine_ls_extinction_method      none 
_refine_ls_extinction_coef        ? 
_refine_ls_number_reflns          2401 
_refine_ls_number_parameters      145 
_refine_ls_number_restraints      0 
_refine_ls_R_factor_all           0.1162 
_refine_ls_R_factor_gt            0.0932 
_refine_ls_wR_factor_ref          0.2846 
_refine_ls_wR_factor_gt           0.2520 
_refine_ls_goodness_of_fit_ref    0.940 
_refine_ls_restrained_S_all       0.940 
_refine_ls_shift/su_max           0.000 
_refine_ls_shift/su_mean          0.000 
 
loop_ 
 _atom_site_label 
 _atom_site_type_symbol 
 _atom_site_fract_x 
 _atom_site_fract_y 
 _atom_site_fract_z 
 _atom_site_U_iso_or_equiv 
 _atom_site_adp_type 
 _atom_site_occupancy 
 _atom_site_symmetry_multiplicity 
 _atom_site_calc_flag 
 _atom_site_refinement_flags 
 _atom_site_disorder_assembly 
 _atom_site_disorder_group 
S1 S 0.68590(7) 0.45503(17) 0.12217(17) 0.0885(5) Uani 1 1 d . . . 
S2 S 0.84574(7) 0.71952(15) 0.62791(14) 0.0766(5) Uani 1 1 d . . . 
C1 C 0.4628(2) 0.5189(4) 0.0145(4) 0.0618(10) Uani 1 1 d . . . 
C2 C 0.4433(2) 0.5798(4) 0.1711(5) 0.0642(10) Uani 1 1 d . . . 
C3 C 0.4943(3) 0.5959(5) 0.2964(5) 0.0737(11) Uani 1 1 d . . . 
C4 C 0.5726(3) 0.5576(4) 0.2747(5) 0.0720(11) Uani 1 1 d . . . 
C5 C 0.6309(3) 0.5667(5) 0.3736(6) 0.0750(12) Uani 1 1 d . . . 
C6 C 0.6989(3) 0.5109(7) 0.3208(7) 0.0964(15) Uani 1 1 d . . . 
C7 C 0.5903(2) 0.5026(4) 0.1237(4) 0.0594(9) Uani 1 1 d . . . 
C8 C 1.0229(2) 0.4242(4) 0.4933(4) 0.0579(8) Uani 1 1 d . . . 
C9 C 1.0023(3) 0.2571(4) 0.5630(5) 0.0656(10) Uani 1 1 d . . . 
C10 C 0.9392(3) 0.2425(5) 0.6426(5) 0.0755(12) Uani 1 1 d . . . 
C11 C 0.8919(3) 0.3918(5) 0.6604(4) 0.0675(10) Uani 1 1 d . . . 
C12 C 0.8246(3) 0.4065(6) 0.7461(6) 0.0834(13) Uani 1 1 d . . . 
C13 C 0.7938(3) 0.5732(7) 0.7378(6) 0.0835(12) Uani 1 1 d . . . 
C14 C 0.9108(2) 0.5526(4) 0.5918(4) 0.0640(10) Uani 1 1 d . . . 
H1 H 0.3921 0.6103 0.1871 0.078 Uiso 1 1 d . . . 
H2 H 0.4790 0.6353 0.3989 0.087 Uiso 1 1 d . . . 
H3 H 0.6271 0.6143 0.4789 0.088 Uiso 1 1 d . . . 
H4 H 0.7454 0.5091 0.3820 0.114 Uiso 1 1 d . . . 
H5 H 1.0331 0.1544 0.5521 0.078 Uiso 1 1 d . . . 
H6 H 0.9259 0.1278 0.6857 0.090 Uiso 1 1 d . . . 
H7 H 0.8032 0.3103 0.8036 0.099 Uiso 1 1 d . . . 
H8 H 0.7479 0.6069 0.7875 0.100 Uiso 1 1 d . . . 
 
loop_ 
 _atom_site_aniso_label 
 _atom_site_aniso_U_11 
 _atom_site_aniso_U_22 
 _atom_site_aniso_U_33 
 _atom_site_aniso_U_23 
 _atom_site_aniso_U_13 
 _atom_site_aniso_U_12 
S1 0.0768(9) 0.1021(9) 0.0865(10) -0.0014(6) 0.0035(7) 0.0019(5) 
S2 0.0800(9) 0.0834(7) 0.0654(7) -0.0045(4) -0.0034(6) 0.0047(5) 
C1 0.075(3) 0.0467(14) 0.064(2) 0.0020(13) 0.0087(19) 0.0010(14) 
C2 0.080(3) 0.0582(17) 0.056(2) 0.0005(14) 0.0144(19) 0.0086(15) 
C3 0.094(3) 0.068(2) 0.061(2) -0.0097(16) 0.013(2) 0.0074(18) 
C4 0.099(3) 0.0534(17) 0.064(2) -0.0019(14) 0.013(2) -0.0002(17) 
C5 0.073(3) 0.0576(18) 0.096(3) -0.0181(18) 0.016(2) -0.0062(16) 
C6 0.084(4) 0.102(3) 0.100(4) -0.008(3) -0.019(3) -0.003(2) 
C7 0.069(2) 0.0492(15) 0.060(2) 0.0049(13) 0.0041(17) -0.0028(13) 
C8 0.075(2) 0.0544(15) 0.0421(17) -0.0006(12) -0.0125(15) -0.0060(14) 
C9 0.082(3) 0.0576(17) 0.055(2) 0.0043(14) -0.0076(19) -0.0045(15) 
C10 0.100(4) 0.0647(19) 0.059(2) 0.0099(16) -0.013(2) -0.0117(18) 
C11 0.084(3) 0.0698(19) 0.0466(18) 0.0007(14) -0.0114(18) -0.0117(17) 
C12 0.091(4) 0.094(3) 0.065(3) -0.002(2) 0.005(2) -0.023(2) 
C13 0.082(3) 0.103(3) 0.065(3) -0.003(2) 0.000(2) -0.006(2) 
C14 0.079(3) 0.0642(18) 0.0468(19) -0.0030(13) -0.0134(17) -0.0068(15) 
 
_geom_special_details 
; 
 All esds (except the esd in the dihedral angle between two l.s. planes) 
 are estimated using the full covariance matrix.  The cell esds are taken 
 into account individually in the estimation of esds in distances, angles 
 and torsion angles; correlations between esds in cell parameters are only 
 used when they are defined by crystal symmetry.  An approximate (isotropic) 
 treatment of cell esds is used for estimating esds involving l.s. planes. 
; 
 
loop_ 
 _geom_bond_atom_site_label_1 
 _geom_bond_atom_site_label_2 
 _geom_bond_distance 
 _geom_bond_site_symmetry_2 
 _geom_bond_publ_flag 
S1 C6 1.692(6) . yes 
S1 C7 1.756(4) . yes 
S2 C13 1.730(5) . yes 
S2 C14 1.749(4) . yes 
C1 C1 1.400(8) 3_665 yes 
C1 C2 1.433(5) . yes 
C1 C7 1.450(5) 3_665 yes 
C2 C3 1.344(6) . yes 
C3 C4 1.457(7) . yes 
C4 C5 1.290(7) . yes 
C4 C7 1.367(5) . yes 
C5 C6 1.387(7) . yes 
C7 C1 1.450(5) 3_665 yes 
C8 C8 1.411(7) 3_766 yes 
C8 C14 1.430(6) 3_766 yes 
C8 C9 1.434(5) . yes 
C9 C10 1.349(7) . yes 
C10 C11 1.418(7) . yes 
C11 C14 1.381(5) . yes 
C11 C12 1.441(7) . yes 
C12 C13 1.365(7) . yes 
C14 C8 1.430(6) 3_766 yes 
 
loop_ 
 _geom_angle_atom_site_label_1 
 _geom_angle_atom_site_label_2 
 _geom_angle_atom_site_label_3 
 _geom_angle 
 _geom_angle_site_symmetry_1 
 _geom_angle_site_symmetry_3 
 _geom_angle_publ_flag 
C6 S1 C7 91.2(2) . . yes 
C13 S2 C14 91.4(2) . . yes 
C1 C1 C2 120.5(5) 3_665 . yes 
C1 C1 C7 115.7(4) 3_665 3_665 yes 
C2 C1 C7 123.9(4) . 3_665 yes 
C3 C2 C1 121.8(4) . . yes 
C2 C3 C4 120.5(4) . . yes 
C5 C4 C7 111.5(4) . . yes 
C5 C4 C3 131.7(4) . . yes 
C7 C4 C3 116.8(4) . . yes 
C4 C5 C6 118.9(5) . . yes 
C5 C6 S1 107.8(4) . . yes 
C4 C7 C1 124.8(4) . 3_665 yes 
C4 C7 S1 110.4(3) . . yes 
C1 C7 S1 124.8(3) 3_665 . yes 
C8 C8 C14 116.6(4) 3_766 3_766 yes 
C8 C8 C9 120.3(5) 3_766 . yes 
C14 C8 C9 123.1(4) 3_766 . yes 
C10 C9 C8 120.7(4) . . yes 
C9 C10 C11 120.9(3) . . yes 
C14 C11 C10 118.7(4) . . yes 
C14 C11 C12 111.7(4) . . yes 
C10 C11 C12 129.6(4) . . yes 
C13 C12 C11 113.2(4) . . yes 
C12 C13 S2 112.0(4) . . yes 
C11 C14 C8 122.7(4) . 3_766 yes 
C11 C14 S2 111.7(3) . . yes 
C8 C14 S2 125.6(3) 3_766 . yes 
 
loop_ 
 _geom_torsion_atom_site_label_1 
 _geom_torsion_atom_site_label_2 
 _geom_torsion_atom_site_label_3 
 _geom_torsion_atom_site_label_4 
 _geom_torsion 
 _geom_torsion_site_symmetry_1 
 _geom_torsion_site_symmetry_2 
 _geom_torsion_site_symmetry_3 
 _geom_torsion_site_symmetry_4 
 _geom_torsion_publ_flag 
C1 C1 C2 C3 -2.7(6) 3_665 . . . yes 
C7 C1 C2 C3 179.3(3) 3_665 . . . yes 
C1 C2 C3 C4 2.3(6) . . . . yes 
C2 C3 C4 C5 178.5(4) . . . . yes 
C2 C3 C4 C7 -1.1(5) . . . . yes 
C7 C4 C5 C6 -4.2(5) . . . . yes 
C3 C4 C5 C6 176.1(4) . . . . yes 
C4 C5 C6 S1 3.9(6) . . . . yes 
C7 S1 C6 C5 -1.8(4) . . . . yes 
C5 C4 C7 C1 -179.3(3) . . . 3_665 yes 
C3 C4 C7 C1 0.4(5) . . . 3_665 yes 
C5 C4 C7 S1 2.5(4) . . . . yes 
C3 C4 C7 S1 -177.8(3) . . . . yes 
C6 S1 C7 C4 -0.3(3) . . . . yes 
C6 S1 C7 C1 -178.6(3) . . . 3_665 yes 
C8 C8 C9 C10 -0.2(6) 3_766 . . . yes 
C14 C8 C9 C10 179.8(4) 3_766 . . . yes 
C8 C9 C10 C11 -0.4(6) . . . . yes 
C9 C10 C11 C14 1.3(6) . . . . yes 
C9 C10 C11 C12 -176.9(4) . . . . yes 
C14 C11 C12 C13 1.3(5) . . . . yes 
C10 C11 C12 C13 179.6(4) . . . . yes 
C11 C12 C13 S2 -0.7(5) . . . . yes 
C14 S2 C13 C12 0.0(4) . . . . yes 
C10 C11 C14 C8 -1.5(6) . . . 3_766 yes 
C12 C11 C14 C8 177.0(3) . . . 3_766 yes 
C10 C11 C14 S2 -179.8(3) . . . . yes 
C12 C11 C14 S2 -1.3(4) . . . . yes 
C13 S2 C14 C11 0.8(3) . . . . yes 
C13 S2 C14 C8 -177.4(3) . . . 3_766 yes 
 
_diffrn_measured_fraction_theta_max    0.944 
_diffrn_reflns_theta_full              27.46 
_diffrn_measured_fraction_theta_full   0.944 
_refine_diff_density_max    0.678 
_refine_diff_density_min   -0.499 
_refine_diff_density_rms    0.083 

#--END
 
data_NDS 
 
_audit_creation_method            SHELXL-97 
_chemical_name_systematic 
; 
 NDS 
; 
_chemical_name_common             NDS 
_chemical_melting_point           ? 
_chemical_formula_moiety          'C14 H8 Se2' 
_chemical_formula_sum 
 'C14 H8 Se2' 
_chemical_formula_weight          334.12 
 
loop_ 
 _atom_type_symbol 
 _atom_type_description 
 _atom_type_scat_dispersion_real 
 _atom_type_scat_dispersion_imag 
 _atom_type_scat_source 
 'C'  'C'   0.0033   0.0016 
 'International Tables Vol C Tables 4.2.6.8 and 6.1.1.4' 
 'H'  'H'   0.0000   0.0000 
 'International Tables Vol C Tables 4.2.6.8 and 6.1.1.4' 
 'Se'  'Se'  -0.0929   2.2259 
 'International Tables Vol C Tables 4.2.6.8 and 6.1.1.4' 
 
_symmetry_cell_setting            orthorhombic 
_symmetry_space_group_name_H-M    'Pbca' 
 
loop_ 
 _symmetry_equiv_pos_as_xyz 
 'x, y, z' 
 'x+1/2, -y+1/2, -z' 
 '-x, y+1/2, -z+1/2' 
 '-x+1/2, -y, z+1/2' 
 '-x, -y, -z' 
 '-x-1/2, y-1/2, z' 
 'x, -y-1/2, z-1/2' 
 'x-1/2, y, -z-1/2' 
 
_cell_length_a                    6.542(4) 
_cell_length_b                    9.100(6) 
_cell_length_c                    19.268(12) 
_cell_angle_alpha                 90.00 
_cell_angle_beta                  90.00 
_cell_angle_gamma                 90.00 
_cell_volume                      1147.0(12) 
_cell_formula_units_Z             4 
_cell_measurement_temperature     293(2) 
_cell_measurement_reflns_used     2483 
_cell_measurement_theta_min       3.1 
_cell_measurement_theta_max       27.5 
 
_exptl_crystal_description        'Platelet' 
_exptl_crystal_colour             'Colorless' 
_exptl_crystal_size_max           0.15
_exptl_crystal_size_mid           0.1500 
_exptl_crystal_size_min           0.050 
_exptl_crystal_density_meas       ? 
_exptl_crystal_density_diffrn     1.935 
_exptl_crystal_density_method     'not measured' 
_exptl_crystal_F_000              640 
_exptl_absorpt_coefficient_mu     6.412 
_exptl_absorpt_correction_type    multi-scan 
_exptl_absorpt_correction_T_min   0.726 
_exptl_absorpt_correction_T_max   0.726 
_exptl_absorpt_process_details    '(Jacobson, 1998)' 
 
_exptl_special_details 
; 
 ? 
; 
 
_diffrn_ambient_temperature       293(2) 
_diffrn_radiation_wavelength      0.71070 
_diffrn_radiation_type            MoK\a 
_diffrn_radiation_source          'fine-focus sealed tube' 
_diffrn_radiation_monochromator   graphite 
_diffrn_measurement_device_type   'Rigaku/MSC Mercury CCD' 
_diffrn_measurement_method        \w 
_diffrn_detector_area_resol_mean  14.71 
_diffrn_standards_number          8048 
_diffrn_standards_interval_count  ? 
_diffrn_standards_interval_time   ? 
_diffrn_standards_decay_%         ? 
_diffrn_reflns_number             1302 
_diffrn_reflns_av_R_equivalents   0.0000 
_diffrn_reflns_av_sigmaI/netI     0.0976 
_diffrn_reflns_limit_h_min        0 
_diffrn_reflns_limit_h_max        8 
_diffrn_reflns_limit_k_min        0 
_diffrn_reflns_limit_k_max        11 
_diffrn_reflns_limit_l_min        0 
_diffrn_reflns_limit_l_max        24 
_diffrn_reflns_theta_min          4.48 
_diffrn_reflns_theta_max          27.48 
_reflns_number_total              1302 
_reflns_number_gt                 700 
_reflns_threshold_expression      >2sigma(I) 
 
_computing_data_collection        'CRYSTALCLEAR' 
_computing_cell_refinement        'CRYSTALCLEAR' 
_computing_data_reduction         'teXsan Ver. 1.11' 
_computing_structure_solution     'SHELXS-97 (Sheldrick, 1990)' 
_computing_structure_refinement   'SHELXL-97 (Sheldrick, 1997)' 
_computing_molecular_graphics     ? 
_computing_publication_material   'teXsan Ver. 1.11' 
 
_refine_special_details 
; 
 Refinement of F^2^ against ALL reflections.  The weighted R-factor wR and 
 goodness of fit S are based on F^2^, conventional R-factors R are based 
 on F, with F set to zero for negative F^2^. The threshold expression of 
 F^2^ > 2sigma(F^2^) is used only for calculating R-factors(gt) etc. and is 
 not relevant to the choice of reflections for refinement.  R-factors based 
 on F^2^ are statistically about twice as large as those based on F, and R- 
 factors based on ALL data will be even larger. 
; 
 
_refine_ls_structure_factor_coef  Fsqd  
_refine_ls_matrix_type            full 
_refine_ls_weighting_scheme       calc  
_refine_ls_weighting_details 
 'calc w=1/[\s^2^(Fo^2^)+(0.0229P)^2^+0.0000P] where P=(Fo^2^+2Fc^2^)/3' 
_atom_sites_solution_primary      direct 
_atom_sites_solution_secondary    difmap 
_atom_sites_solution_hydrogens    geom 
_refine_ls_hydrogen_treatment     none 
_refine_ls_extinction_method      none 
_refine_ls_extinction_coef        ? 
_refine_ls_number_reflns          1302 
_refine_ls_number_parameters      73 
_refine_ls_number_restraints      0 
_refine_ls_R_factor_all           0.0543 
_refine_ls_R_factor_gt            0.0375 
_refine_ls_wR_factor_ref          0.0797 
_refine_ls_wR_factor_gt           0.0755 
_refine_ls_goodness_of_fit_ref    0.723 
_refine_ls_restrained_S_all       0.723 
_refine_ls_shift/su_max           0.000 
_refine_ls_shift/su_mean          0.000 
 
loop_ 
 _atom_site_label 
 _atom_site_type_symbol 
 _atom_site_fract_x 
 _atom_site_fract_y 
 _atom_site_fract_z 
 _atom_site_U_iso_or_equiv 
 _atom_site_adp_type 
 _atom_site_occupancy 
 _atom_site_symmetry_multiplicity 
 _atom_site_calc_flag 
 _atom_site_refinement_flags 
 _atom_site_disorder_assembly 
 _atom_site_disorder_group 
Se1 Se 0.31658(6) -0.12683(5) 0.16429(2) 0.0547(2) Uani 1 1 d . . . 
C1 C 0.7604(5) -0.0763(4) -0.0228(2) 0.0406(10) Uani 1 1 d . . . 
C2 C 0.8031(5) -0.1591(4) 0.0342(2) 0.0414(10) Uani 1 1 d . . . 
C3 C 0.4270(5) -0.0034(4) 0.02864(19) 0.0352(9) Uani 1 1 d . . . 
C4 C 0.6606(5) -0.1734(4) 0.0880(2) 0.0402(9) Uani 1 1 d . . . 
C5 C 0.4811(5) -0.0939(4) 0.0849(2) 0.0388(9) Uani 1 1 d . . . 
C6 C 0.6773(6) -0.2648(5) 0.1488(2) 0.0513(11) Uani 1 1 d . . . 
C7 C 0.5206(7) -0.2586(5) 0.1925(2) 0.0602(12) Uani 1 1 d . . . 
H1 H 0.8575 -0.0693 -0.0600 0.052 Uiso 1 1 d . . . 
H2 H 0.9340 -0.2112 0.0368 0.051 Uiso 1 1 d . . . 
H3 H 0.7951 -0.3272 0.1565 0.063 Uiso 1 1 d . . . 
H4 H 0.5129 -0.3163 0.2357 0.073 Uiso 1 1 d . . . 
 
loop_ 
 _atom_site_aniso_label 
 _atom_site_aniso_U_11 
 _atom_site_aniso_U_22 
 _atom_site_aniso_U_33 
 _atom_site_aniso_U_23 
 _atom_site_aniso_U_13 
 _atom_site_aniso_U_12 
Se1 0.0583(3) 0.0639(3) 0.0419(3) -0.0008(2) 0.0103(2) -0.0026(2) 
C1 0.0331(19) 0.041(2) 0.048(3) -0.011(2) 0.0071(18) -0.0031(17) 
C2 0.0326(19) 0.038(2) 0.054(3) -0.0097(19) -0.0065(19) 0.0053(17) 
C3 0.036(2) 0.033(2) 0.037(2) -0.0074(18) 0.0030(17) -0.0036(17) 
C4 0.040(2) 0.037(2) 0.043(3) -0.0057(18) -0.0035(19) -0.0035(18) 
C5 0.038(2) 0.040(2) 0.038(2) -0.0047(18) 0.0035(17) -0.0048(17) 
C6 0.051(2) 0.052(3) 0.050(3) -0.004(2) -0.010(2) 0.004(2) 
C7 0.070(3) 0.065(3) 0.046(3) 0.008(2) -0.003(2) 0.003(3) 
 
_geom_special_details 
; 
 All esds (except the esd in the dihedral angle between two l.s. planes) 
 are estimated using the full covariance matrix.  The cell esds are taken 
 into account individually in the estimation of esds in distances, angles 
 and torsion angles; correlations between esds in cell parameters are only 
 used when they are defined by crystal symmetry.  An approximate (isotropic) 
 treatment of cell esds is used for estimating esds involving l.s. planes. 
; 
 
loop_ 
 _geom_bond_atom_site_label_1 
 _geom_bond_atom_site_label_2 
 _geom_bond_distance 
 _geom_bond_site_symmetry_2 
 _geom_bond_publ_flag 
Se1 C7 1.875(4) . yes 
Se1 C5 1.893(4) . yes 
C1 C2 1.361(5) . yes 
C1 C3 1.428(5) 5_655 yes 
C2 C4 1.400(5) . yes 
C3 C5 1.407(5) . yes 
C3 C1 1.428(5) 5_655 yes 
C3 C3 1.461(6) 5_655 yes 
C4 C5 1.380(5) . yes 
C4 C6 1.441(5) . yes 
C6 C7 1.329(5) . yes 
 
loop_ 
 _geom_angle_atom_site_label_1 
 _geom_angle_atom_site_label_2 
 _geom_angle_atom_site_label_3 
 _geom_angle 
 _geom_angle_site_symmetry_1 
 _geom_angle_site_symmetry_3 
 _geom_angle_publ_flag 
C7 Se1 C5 86.05(18) . . yes 
C2 C1 C3 121.4(4) . 5_655 yes 
C1 C2 C4 120.8(3) . . yes 
C5 C3 C1 125.0(3) . 5_655 yes 
C5 C3 C3 116.3(4) . 5_655 yes 
C1 C3 C3 118.7(4) 5_655 5_655 yes 
C5 C4 C2 119.2(4) . . yes 
C5 C4 C6 113.7(4) . . yes 
C2 C4 C6 127.2(4) . . yes 
C4 C5 C3 123.6(4) . . yes 
C4 C5 Se1 111.5(3) . . yes 
C3 C5 Se1 124.9(3) . . yes 
C7 C6 C4 115.6(4) . . yes 
C6 C7 Se1 113.1(3) . . yes 
 
loop_ 
 _geom_torsion_atom_site_label_1 
 _geom_torsion_atom_site_label_2 
 _geom_torsion_atom_site_label_3 
 _geom_torsion_atom_site_label_4 
 _geom_torsion 
 _geom_torsion_site_symmetry_1 
 _geom_torsion_site_symmetry_2 
 _geom_torsion_site_symmetry_3 
 _geom_torsion_site_symmetry_4 
 _geom_torsion_publ_flag 
C3 C1 C2 C4 2.4(6) 5_655 . . . yes 
C1 C2 C4 C5 -4.6(6) . . . . yes 
C1 C2 C4 C6 175.2(4) . . . . yes 
C2 C4 C5 C3 3.3(6) . . . . yes 
C6 C4 C5 C3 -176.5(3) . . . . yes 
C2 C4 C5 Se1 -178.4(3) . . . . yes 
C6 C4 C5 Se1 1.8(4) . . . . yes 
C1 C3 C5 C4 177.7(3) 5_655 . . . yes 
C3 C3 C5 C4 0.1(6) 5_655 . . . yes 
C1 C3 C5 Se1 -0.4(5) 5_655 . . . yes 
C3 C3 C5 Se1 -178.0(3) 5_655 . . . yes 
C7 Se1 C5 C4 -2.0(3) . . . . yes 
C7 Se1 C5 C3 176.3(3) . . . . yes 
C5 C4 C6 C7 -0.4(6) . . . . yes 
C2 C4 C6 C7 179.8(4) . . . . yes 
C4 C6 C7 Se1 -1.2(5) . . . . yes 
C5 Se1 C7 C6 1.8(3) . . . . yes 
 
_diffrn_measured_fraction_theta_max    0.986 
_diffrn_reflns_theta_full              27.48 
_diffrn_measured_fraction_theta_full   0.986 
_refine_diff_density_max    0.446 
_refine_diff_density_min   -0.459 
_refine_diff_density_rms    0.090 

#--END
 
data_C8-NDT 
 
_audit_creation_method            SHELXL-97 
_chemical_name_systematic 
; 
 C8-NDT 
; 
_chemical_name_common             C8-NDT 
_chemical_melting_point           ? 
_chemical_formula_moiety          'C30 H40 S2' 
_chemical_formula_sum 
 'C30 H40 S2' 
_chemical_formula_weight          464.74 
 
loop_ 
 _atom_type_symbol 
 _atom_type_description 
 _atom_type_scat_dispersion_real 
 _atom_type_scat_dispersion_imag 
 _atom_type_scat_source 
 'C'  'C'   0.0033   0.0016 
 'International Tables Vol C Tables 4.2.6.8 and 6.1.1.4' 
 'H'  'H'   0.0000   0.0000 
 'International Tables Vol C Tables 4.2.6.8 and 6.1.1.4' 
 'S'  'S'   0.1246   0.1234 
 'International Tables Vol C Tables 4.2.6.8 and 6.1.1.4' 
 
_symmetry_cell_setting            triclinic 
_symmetry_space_group_name_H-M    'P -1' 
 
loop_ 
 _symmetry_equiv_pos_as_xyz 
 'x, y, z' 
 '-x, -y, -z' 
 
_cell_length_a                    5.369(9) 
_cell_length_b                    11.119(19) 
_cell_length_c                    12.03(2) 
_cell_angle_alpha                 109.24(2) 
_cell_angle_beta                  98.78(2) 
_cell_angle_gamma                 93.683(19) 
_cell_volume                      665(2) 
_cell_formula_units_Z             1 
_cell_measurement_temperature     293(2) 
_cell_measurement_reflns_used     1774 
_cell_measurement_theta_min       3.1 
_cell_measurement_theta_max       27.5 
 
_exptl_crystal_description        'Block' 
_exptl_crystal_colour             'Colorless' 
_exptl_crystal_size_max           0.700 
_exptl_crystal_size_mid           0.600 
_exptl_crystal_size_min           0.400 
_exptl_crystal_density_meas       ? 
_exptl_crystal_density_diffrn     1.160 
_exptl_crystal_density_method     'not measured' 
_exptl_crystal_F_000              252 
_exptl_absorpt_coefficient_mu     0.216 
_exptl_absorpt_correction_type    multi-scan 
_exptl_absorpt_correction_T_min   0.917
_exptl_absorpt_correction_T_max   0.917 
_exptl_absorpt_process_details    '(Jacobson, 1998)'
 
_exptl_special_details 
; 
 ? 
; 
 
_diffrn_ambient_temperature       293(2) 
_diffrn_radiation_wavelength      0.71070 
_diffrn_radiation_type            MoK\a 
_diffrn_radiation_source          'fine-focus sealed tube' 
_diffrn_radiation_monochromator   graphite 
_diffrn_measurement_device_type   'Rigaku/MSC Mercury CCD' 
_diffrn_measurement_method        \w 
_diffrn_detector_area_resol_mean  14.71 
_diffrn_standards_number          5072 
_diffrn_standards_interval_count  ? 
_diffrn_standards_interval_time   ? 
_diffrn_standards_decay_%         ? 
_diffrn_reflns_number             2843 
_diffrn_reflns_av_R_equivalents   0.0000 
_diffrn_reflns_av_sigmaI/netI     0.1053 
_diffrn_reflns_limit_h_min        0 
_diffrn_reflns_limit_h_max        6 
_diffrn_reflns_limit_k_min        -14 
_diffrn_reflns_limit_k_max        14 
_diffrn_reflns_limit_l_min        -15 
_diffrn_reflns_limit_l_max        14 
_diffrn_reflns_theta_min          3.10 
_diffrn_reflns_theta_max          27.48 
_reflns_number_total              2843 
_reflns_number_gt                 1449 
_reflns_threshold_expression      >2sigma(I) 
 
_computing_data_collection        'CRYSTALCLEAR' 
_computing_cell_refinement        'CRYSTALCLEAR' 
_computing_data_reduction         'teXsan Ver. 1.11'
_computing_structure_solution     'SHELXS-97 (Sheldrick, 1990)' 
_computing_structure_refinement   'SHELXL-97 (Sheldrick, 1997)' 
_computing_molecular_graphics     ? 
_computing_publication_material   'teXsan Ver. 1.11' 
 
_refine_special_details 
; 
 Refinement of F^2^ against ALL reflections.  The weighted R-factor wR and 
 goodness of fit S are based on F^2^, conventional R-factors R are based 
 on F, with F set to zero for negative F^2^. The threshold expression of 
 F^2^ > 2sigma(F^2^) is used only for calculating R-factors(gt) etc. and is 
 not relevant to the choice of reflections for refinement.  R-factors based 
 on F^2^ are statistically about twice as large as those based on F, and R- 
 factors based on ALL data will be even larger. 
; 
 
_refine_ls_structure_factor_coef  Fsqd  
_refine_ls_matrix_type            full 
_refine_ls_weighting_scheme       calc  
_refine_ls_weighting_details 
 'calc w=1/[\s^2^(Fo^2^)+(0.0623P)^2^+0.0000P] where P=(Fo^2^+2Fc^2^)/3' 
_atom_sites_solution_primary      direct 
_atom_sites_solution_secondary    difmap 
_atom_sites_solution_hydrogens    geom 
_refine_ls_hydrogen_treatment     none 
_refine_ls_extinction_method      none 
_refine_ls_extinction_coef        ? 
_refine_ls_number_reflns          2843 
_refine_ls_number_parameters      145 
_refine_ls_number_restraints      0 
_refine_ls_R_factor_all           0.0704 
_refine_ls_R_factor_gt            0.0518 
_refine_ls_wR_factor_ref          0.1324 
_refine_ls_wR_factor_gt           0.1263 
_refine_ls_goodness_of_fit_ref    0.730 
_refine_ls_restrained_S_all       0.730 
_refine_ls_shift/su_max           0.000 
_refine_ls_shift/su_mean          0.000 
 
loop_ 
 _atom_site_label 
 _atom_site_type_symbol 
 _atom_site_fract_x 
 _atom_site_fract_y 
 _atom_site_fract_z 
 _atom_site_U_iso_or_equiv 
 _atom_site_adp_type 
 _atom_site_occupancy 
 _atom_site_symmetry_multiplicity 
 _atom_site_calc_flag 
 _atom_site_refinement_flags 
 _atom_site_disorder_assembly 
 _atom_site_disorder_group 
S1 S 0.30205(11) 0.78796(6) 1.01441(6) 0.0578(2) Uani 1 1 d . . . 
C1 C 0.0878(4) 0.5379(2) 0.98239(19) 0.0445(5) Uani 1 1 d . . . 
C2 C 0.1070(4) 0.6733(2) 1.0398(2) 0.0461(5) Uani 1 1 d . . . 
C3 C -0.0363(4) 0.7316(2) 1.1258(2) 0.0486(6) Uani 1 1 d . . . 
C4 C -0.2099(4) 0.6514(2) 1.1579(2) 0.0554(6) Uani 1 1 d . . . 
C5 C -0.2336(4) 0.5212(2) 1.1047(2) 0.0529(6) Uani 1 1 d . . . 
C6 C 0.0159(4) 0.8691(2) 1.1683(2) 0.0538(6) Uani 1 1 d . . . 
C7 C 0.1910(4) 0.9134(2) 1.1167(2) 0.0513(6) Uani 1 1 d . . . 
C8 C 0.2955(5) 1.0490(2) 1.1346(2) 0.0591(6) Uani 1 1 d . . . 
C9 C 0.1918(4) 1.1534(2) 1.2258(2) 0.0590(6) Uani 1 1 d . . . 
C10 C 0.3054(4) 1.2872(2) 1.2374(2) 0.0580(6) Uani 1 1 d . . . 
C11 C 0.2035(5) 1.3956(2) 1.3254(2) 0.0618(7) Uani 1 1 d . . . 
C12 C 0.3234(4) 1.5289(2) 1.3391(2) 0.0581(6) Uani 1 1 d . . . 
C13 C 0.2249(5) 1.6376(2) 1.4281(2) 0.0625(7) Uani 1 1 d . . . 
C14 C 0.3459(5) 1.7707(2) 1.4427(2) 0.0700(8) Uani 1 1 d . . . 
C15 C 0.2374(6) 1.8782(3) 1.5303(3) 0.1036(11) Uani 1 1 d . . . 
H1 H -0.3100 0.6894 1.2173 0.068 Uiso 1 1 d . . . 
H2 H -0.3458 0.4676 1.1296 0.064 Uiso 1 1 d . . . 
H3 H -0.0665 0.9238 1.2295 0.064 Uiso 1 1 d . . . 
H4 H 0.4756 1.0597 1.1588 0.074 Uiso 1 1 d . . . 
H5 H 0.2579 1.0631 1.0594 0.074 Uiso 1 1 d . . . 
H6 H 0.0116 1.1447 1.2023 0.072 Uiso 1 1 d . . . 
H7 H 0.2304 1.1420 1.3015 0.072 Uiso 1 1 d . . . 
H8 H 0.4850 1.2957 1.2619 0.073 Uiso 1 1 d . . . 
H9 H 0.2704 1.2968 1.1602 0.073 Uiso 1 1 d . . . 
H10 H 0.0244 1.3885 1.2990 0.076 Uiso 1 1 d . . . 
H11 H 0.2343 1.3846 1.4014 0.076 Uiso 1 1 d . . . 
H12 H 0.5027 1.5358 1.3637 0.072 Uiso 1 1 d . . . 
H13 H 0.2912 1.5403 1.2623 0.072 Uiso 1 1 d . . . 
H14 H 0.0446 1.6326 1.4022 0.079 Uiso 1 1 d . . . 
H15 H 0.2537 1.6267 1.5039 0.079 Uiso 1 1 d . . . 
H16 H 0.5237 1.7769 1.4692 0.085 Uiso 1 1 d . . . 
H17 H 0.3171 1.7818 1.3660 0.085 Uiso 1 1 d . . . 
H18 H 0.2687 1.8691 1.6077 0.125 Uiso 1 1 d . . . 
H19 H 0.3190 1.9593 1.5368 0.125 Uiso 1 1 d . . . 
H20 H 0.0609 1.8733 1.5047 0.125 Uiso 1 1 d . . . 
 
loop_ 
 _atom_site_aniso_label 
 _atom_site_aniso_U_11 
 _atom_site_aniso_U_22 
 _atom_site_aniso_U_33 
 _atom_site_aniso_U_23 
 _atom_site_aniso_U_13 
 _atom_site_aniso_U_12 
S1 0.0585(4) 0.0483(4) 0.0696(5) 0.0223(3) 0.0207(3) -0.0034(3) 
C1 0.0429(12) 0.0462(13) 0.0460(13) 0.0195(10) 0.0069(10) -0.0004(10) 
C2 0.0443(12) 0.0461(13) 0.0503(14) 0.0213(11) 0.0081(10) -0.0011(10) 
C3 0.0499(13) 0.0488(13) 0.0491(14) 0.0207(11) 0.0089(11) 0.0007(10) 
C4 0.0576(15) 0.0570(15) 0.0566(16) 0.0213(12) 0.0230(12) 0.0026(12) 
C5 0.0535(14) 0.0512(14) 0.0586(16) 0.0222(12) 0.0198(12) -0.0014(11) 
C6 0.0615(15) 0.0481(14) 0.0516(15) 0.0158(11) 0.0151(12) 0.0025(11) 
C7 0.0505(14) 0.0511(14) 0.0526(15) 0.0197(11) 0.0087(11) 0.0005(11) 
C8 0.0639(16) 0.0468(14) 0.0649(17) 0.0190(12) 0.0123(13) -0.0054(11) 
C9 0.0607(15) 0.0523(15) 0.0652(17) 0.0234(13) 0.0112(13) -0.0016(12) 
C10 0.0579(15) 0.0477(14) 0.0660(17) 0.0178(12) 0.0121(12) -0.0028(11) 
C11 0.0624(16) 0.0533(15) 0.0686(18) 0.0186(13) 0.0169(13) 0.0005(12) 
C12 0.0577(15) 0.0500(14) 0.0647(17) 0.0162(12) 0.0150(12) 0.0018(11) 
C13 0.0643(16) 0.0557(16) 0.0675(18) 0.0184(13) 0.0189(13) 0.0079(12) 
C14 0.0743(18) 0.0531(16) 0.079(2) 0.0172(14) 0.0167(15) 0.0061(13) 
C15 0.106(3) 0.0582(19) 0.139(3) 0.013(2) 0.043(2) 0.0198(18) 
 
_geom_special_details 
; 
 All esds (except the esd in the dihedral angle between two l.s. planes) 
 are estimated using the full covariance matrix.  The cell esds are taken 
 into account individually in the estimation of esds in distances, angles 
 and torsion angles; correlations between esds in cell parameters are only 
 used when they are defined by crystal symmetry.  An approximate (isotropic) 
 treatment of cell esds is used for estimating esds involving l.s. planes. 
; 
 
loop_ 
 _geom_bond_atom_site_label_1 
 _geom_bond_atom_site_label_2 
 _geom_bond_distance 
 _geom_bond_site_symmetry_2 
 _geom_bond_publ_flag 
S1 C2 1.732(3) . yes 
S1 C7 1.736(3) . yes 
C1 C5 1.416(3) 2_567 yes 
C1 C1 1.426(4) 2_567 yes 
C1 C2 1.424(4) . yes 
C2 C3 1.395(3) . yes 
C3 C4 1.429(3) . yes 
C3 C6 1.437(4) . yes 
C4 C5 1.365(4) . yes 
C5 C1 1.416(3) 2_567 yes 
C6 C7 1.354(3) . yes 
C7 C8 1.509(4) . yes 
C8 C9 1.514(4) . yes 
C9 C10 1.525(4) . yes 
C10 C11 1.515(4) . yes 
C11 C12 1.523(4) . yes 
C12 C13 1.514(4) . yes 
C13 C14 1.521(4) . yes 
C14 C15 1.525(4) . yes 
 
loop_ 
 _geom_angle_atom_site_label_1 
 _geom_angle_atom_site_label_2 
 _geom_angle_atom_site_label_3 
 _geom_angle 
 _geom_angle_site_symmetry_1 
 _geom_angle_site_symmetry_3 
 _geom_angle_publ_flag 
C2 S1 C7 92.50(16) . . yes 
C5 C1 C1 120.6(3) 2_567 2_567 yes 
C5 C1 C2 123.11(19) 2_567 . yes 
C1 C1 C2 116.3(3) 2_567 . yes 
C3 C2 C1 123.1(2) . . yes 
C3 C2 S1 110.53(19) . . yes 
C1 C2 S1 126.33(19) . . yes 
C2 C3 C4 118.4(2) . . yes 
C2 C3 C6 112.1(2) . . yes 
C4 C3 C6 129.5(2) . . yes 
C5 C4 C3 120.1(2) . . yes 
C4 C5 C1 121.5(2) . 2_567 yes 
C7 C6 C3 113.7(2) . . yes 
C6 C7 C8 130.4(2) . . yes 
C6 C7 S1 111.2(2) . . yes 
C8 C7 S1 118.37(19) . . yes 
C7 C8 C9 115.5(2) . . yes 
C8 C9 C10 112.0(2) . . yes 
C11 C10 C9 114.3(2) . . yes 
C10 C11 C12 114.0(2) . . yes 
C13 C12 C11 114.2(2) . . yes 
C12 C13 C14 114.4(2) . . yes 
C13 C14 C15 113.1(3) . . yes 
 
loop_ 
 _geom_torsion_atom_site_label_1 
 _geom_torsion_atom_site_label_2 
 _geom_torsion_atom_site_label_3 
 _geom_torsion_atom_site_label_4 
 _geom_torsion 
 _geom_torsion_site_symmetry_1 
 _geom_torsion_site_symmetry_2 
 _geom_torsion_site_symmetry_3 
 _geom_torsion_site_symmetry_4 
 _geom_torsion_publ_flag 
C5 C1 C2 C3 -179.9(2) 2_567 . . . yes 
C1 C1 C2 C3 -0.2(4) 2_567 . . . yes 
C5 C1 C2 S1 0.7(3) 2_567 . . . yes 
C1 C1 C2 S1 -179.66(19) 2_567 . . . yes 
C7 S1 C2 C3 -0.63(18) . . . . yes 
C7 S1 C2 C1 178.8(2) . . . . yes 
C1 C2 C3 C4 0.2(3) . . . . yes 
S1 C2 C3 C4 179.67(17) . . . . yes 
C1 C2 C3 C6 -179.1(2) . . . . yes 
S1 C2 C3 C6 0.4(3) . . . . yes 
C2 C3 C4 C5 -0.2(3) . . . . yes 
C6 C3 C4 C5 178.9(2) . . . . yes 
C3 C4 C5 C1 0.4(4) . . . 2_567 yes 
C2 C3 C6 C7 0.1(3) . . . . yes 
C4 C3 C6 C7 -179.0(2) . . . . yes 
C3 C6 C7 C8 179.2(2) . . . . yes 
C3 C6 C7 S1 -0.6(3) . . . . yes 
C2 S1 C7 C6 0.69(19) . . . . yes 
C2 S1 C7 C8 -179.07(18) . . . . yes 
C6 C7 C8 C9 0.8(4) . . . . yes 
S1 C7 C8 C9 -179.50(17) . . . . yes 
C7 C8 C9 C10 -179.46(19) . . . . yes 
C8 C9 C10 C11 178.6(2) . . . . yes 
C9 C10 C11 C12 178.36(19) . . . . yes 
C10 C11 C12 C13 -179.2(2) . . . . yes 
C11 C12 C13 C14 179.5(2) . . . . yes 
C12 C13 C14 C15 178.4(2) . . . . yes 
 
_diffrn_measured_fraction_theta_max    0.934 
_diffrn_reflns_theta_full              27.48 
_diffrn_measured_fraction_theta_full   0.934 
_refine_diff_density_max    0.199 
_refine_diff_density_min   -0.407 
_refine_diff_density_rms    0.047 

#--END
 
data_DPh-NDT 
 
_audit_creation_method            SHELXL-97 
_chemical_name_systematic 
; 
 DPh-NDT 
; 
_chemical_name_common             DPh-NDT 
_chemical_melting_point           ? 
_chemical_formula_moiety          'C26 H16 S2' 
_chemical_formula_sum 
 'C26 H16 S2' 
_chemical_formula_weight          392.51 
 
loop_ 
 _atom_type_symbol 
 _atom_type_description 
 _atom_type_scat_dispersion_real 
 _atom_type_scat_dispersion_imag 
 _atom_type_scat_source 
 'C'  'C'   0.0033   0.0016 
 'International Tables Vol C Tables 4.2.6.8 and 6.1.1.4' 
 'H'  'H'   0.0000   0.0000 
 'International Tables Vol C Tables 4.2.6.8 and 6.1.1.4' 
 'S'  'S'   0.1246   0.1234 
 'International Tables Vol C Tables 4.2.6.8 and 6.1.1.4' 
 
_symmetry_cell_setting            monoclinic 
_symmetry_space_group_name_H-M    'P 1 21/a 1' 
 
loop_ 
 _symmetry_equiv_pos_as_xyz 
 'x, y, z' 
 '-x+1/2, y+1/2, -z' 
 '-x, -y, -z' 
 'x-1/2, -y-1/2, z' 
 
_cell_length_a                    6.823(7) 
_cell_length_b                    7.355(8) 
_cell_length_c                    19.05(2) 
_cell_angle_alpha                 90.000(4) 
_cell_angle_beta                  90.427(4) 
_cell_angle_gamma                 90.000(4) 
_cell_volume                      956.0(17) 
_cell_formula_units_Z             2 
_cell_measurement_temperature     293(2) 
_cell_measurement_reflns_used     2554 
_cell_measurement_theta_min       3.5 
_cell_measurement_theta_max       27.5 
 
_exptl_crystal_description        'Platelet' 
_exptl_crystal_colour             'Colorless' 
_exptl_crystal_size_max           0.500 
_exptl_crystal_size_mid           0.500 
_exptl_crystal_size_min           0.050 
_exptl_crystal_density_meas       ? 
_exptl_crystal_density_diffrn     1.364 
_exptl_crystal_density_method     'not measured' 
_exptl_crystal_F_000              408 
_exptl_absorpt_coefficient_mu     0.287 
_exptl_absorpt_correction_type    none 
_exptl_absorpt_correction_T_min   ? 
_exptl_absorpt_correction_T_max   ? 
_exptl_absorpt_process_details    ? 
 
_exptl_special_details 
; 
 ? 
; 
 
_diffrn_ambient_temperature       293(2) 
_diffrn_radiation_wavelength      0.71070 
_diffrn_radiation_type            MoK\a 
_diffrn_radiation_source          'fine-focus sealed tube' 
_diffrn_radiation_monochromator   graphite 
_diffrn_measurement_device_type   'Rigaku/MSC Mercury CCD' 
_diffrn_measurement_method        \w 
_diffrn_detector_area_resol_mean  14.71 
_diffrn_standards_number          7068 
_diffrn_standards_interval_count  ? 
_diffrn_standards_interval_time   ? 
_diffrn_standards_decay_%         ? 
_diffrn_reflns_number             6917 
_diffrn_reflns_av_R_equivalents   0.0986 
_diffrn_reflns_av_sigmaI/netI     0.1093 
_diffrn_reflns_limit_h_min        -8 
_diffrn_reflns_limit_h_max        4 
_diffrn_reflns_limit_k_min        -9 
_diffrn_reflns_limit_k_max        8 
_diffrn_reflns_limit_l_min        -24 
_diffrn_reflns_limit_l_max        24 
_diffrn_reflns_theta_min          3.50 
_diffrn_reflns_theta_max          27.48 
_reflns_number_total              2083 
_reflns_number_gt                 1235 
_reflns_threshold_expression      >2sigma(I) 
 
_computing_data_collection        'CRYSTALCLEAR' 
_computing_cell_refinement        'CRYSTALCLEAR' 
_computing_data_reduction         'teXsan Ver. 1.11' 
_computing_structure_solution     'SHELXS-97 (Sheldrick, 1990)' 
_computing_structure_refinement   'SHELXL-97 (Sheldrick, 1997)' 
_computing_molecular_graphics     ? 
_computing_publication_material   ? 
 
_refine_special_details 
; 
 Refinement of F^2^ against ALL reflections.  The weighted R-factor wR and 
 goodness of fit S are based on F^2^, conventional R-factors R are based 
 on F, with F set to zero for negative F^2^. The threshold expression of 
 F^2^ > 2sigma(F^2^) is used only for calculating R-factors(gt) etc. and is 
 not relevant to the choice of reflections for refinement.  R-factors based 
 on F^2^ are statistically about twice as large as those based on F, and R- 
 factors based on ALL data will be even larger. 
; 
 
_refine_ls_structure_factor_coef  Fsqd  
_refine_ls_matrix_type            full 
_refine_ls_weighting_scheme       calc  
_refine_ls_weighting_details 
 'calc w=1/[\s^2^(Fo^2^)+(0.0496P)^2^+0.0000P] where P=(Fo^2^+2Fc^2^)/3' 
_atom_sites_solution_primary      direct 
_atom_sites_solution_secondary    difmap 
_atom_sites_solution_hydrogens    geom 
_refine_ls_hydrogen_treatment     none 
_refine_ls_extinction_method      none 
_refine_ls_extinction_coef        ? 
_refine_ls_number_reflns          2083 
_refine_ls_number_parameters      127 
_refine_ls_number_restraints      0 
_refine_ls_R_factor_all           0.0674 
_refine_ls_R_factor_gt            0.0519 
_refine_ls_wR_factor_ref          0.1268 
_refine_ls_wR_factor_gt           0.1201 
_refine_ls_goodness_of_fit_ref    0.848 
_refine_ls_restrained_S_all       0.848 
_refine_ls_shift/su_max           0.000 
_refine_ls_shift/su_mean          0.000 
 
loop_ 
 _atom_site_label 
 _atom_site_type_symbol 
 _atom_site_fract_x 
 _atom_site_fract_y 
 _atom_site_fract_z 
 _atom_site_U_iso_or_equiv 
 _atom_site_adp_type 
 _atom_site_occupancy 
 _atom_site_symmetry_multiplicity 
 _atom_site_calc_flag 
 _atom_site_refinement_flags 
 _atom_site_disorder_assembly 
 _atom_site_disorder_group 
S1 S 1.22684(9) -0.06679(7) 0.65944(3) 0.0472(2) Uani 1 1 d . . . 
C1 C 1.0705(4) 0.0013(3) 0.72622(13) 0.0435(6) Uani 1 1 d . . . 
C2 C 0.8921(4) 0.0536(3) 0.69951(13) 0.0441(6) Uani 1 1 d . . . 
C3 C 0.8788(4) 0.0437(2) 0.62562(12) 0.0385(6) Uani 1 1 d . . . 
C4 C 1.0529(3) -0.0190(2) 0.59529(13) 0.0383(6) Uani 1 1 d . . . 
C5 C 1.0801(3) -0.0285(2) 0.52158(12) 0.0363(5) Uani 1 1 d . . . 
C6 C 1.2578(4) -0.0863(3) 0.49058(13) 0.0415(6) Uani 1 1 d . . . 
C7 C 1.2799(3) -0.0927(3) 0.41935(13) 0.0430(6) Uani 1 1 d . . . 
C8 C 1.1386(4) -0.0011(3) 0.79967(13) 0.0444(6) Uani 1 1 d . . . 
C9 C 1.2996(4) -0.1034(3) 0.82116(15) 0.0593(8) Uani 1 1 d . . . 
C10 C 1.3603(5) -0.1042(3) 0.89052(16) 0.0665(9) Uani 1 1 d . . . 
C11 C 1.2638(5) -0.0045(3) 0.94028(15) 0.0612(8) Uani 1 1 d . . . 
C12 C 1.1047(4) 0.0996(3) 0.91995(15) 0.0598(8) Uani 1 1 d . . . 
C13 C 1.0435(4) 0.1023(3) 0.85098(15) 0.0551(7) Uani 1 1 d . . . 
H1 H 0.7854 0.0950 0.7287 0.054 Uiso 1 1 d . . . 
H2 H 1.3654 -0.1208 0.5209 0.048 Uiso 1 1 d . . . 
H3 H 1.4043 -0.1333 0.4004 0.053 Uiso 1 1 d . . . 
H4 H 1.3677 -0.1768 0.7872 0.070 Uiso 1 1 d . . . 
H5 H 1.4678 -0.1803 0.9048 0.077 Uiso 1 1 d . . . 
H6 H 1.3078 -0.0056 0.9887 0.074 Uiso 1 1 d . . . 
H7 H 1.0379 0.1714 0.9546 0.069 Uiso 1 1 d . . . 
H8 H 0.9341 0.1770 0.8374 0.068 Uiso 1 1 d . . . 
 
loop_ 
 _atom_site_aniso_label 
 _atom_site_aniso_U_11 
 _atom_site_aniso_U_22 
 _atom_site_aniso_U_33 
 _atom_site_aniso_U_23 
 _atom_site_aniso_U_13 
 _atom_site_aniso_U_12 
S1 0.0430(4) 0.0530(4) 0.0458(4) 0.0012(3) -0.0012(3) 0.0092(3) 
C1 0.0474(16) 0.0383(11) 0.0447(15) 0.0010(10) 0.0030(12) 0.0037(10) 
C2 0.0430(16) 0.0418(11) 0.0474(16) -0.0014(10) 0.0072(12) 0.0036(10) 
C3 0.0376(14) 0.0337(10) 0.0443(15) 0.0015(9) 0.0041(11) 0.0019(9) 
C4 0.0351(14) 0.0326(10) 0.0470(15) 0.0025(9) -0.0026(11) 0.0004(9) 
C5 0.0338(14) 0.0313(10) 0.0438(15) 0.0010(9) 0.0023(11) -0.0006(8) 
C6 0.0348(14) 0.0441(12) 0.0455(15) 0.0002(9) -0.0021(11) 0.0059(9) 
C7 0.0348(14) 0.0439(11) 0.0505(16) -0.0015(10) 0.0043(12) 0.0055(9) 
C8 0.0495(17) 0.0412(11) 0.0424(15) 0.0013(10) 0.0015(12) -0.0016(10) 
C9 0.063(2) 0.0633(15) 0.0520(18) -0.0062(12) -0.0032(15) 0.0156(13) 
C10 0.068(2) 0.0737(17) 0.057(2) 0.0008(13) -0.0166(17) 0.0173(14) 
C11 0.065(2) 0.0714(17) 0.0472(18) 0.0000(13) -0.0084(16) -0.0027(14) 
C12 0.066(2) 0.0677(16) 0.0455(17) -0.0086(12) 0.0058(15) 0.0054(13) 
C13 0.0557(19) 0.0567(14) 0.0530(18) -0.0028(11) -0.0010(14) 0.0081(12) 
 
_geom_special_details 
; 
 All esds (except the esd in the dihedral angle between two l.s. planes) 
 are estimated using the full covariance matrix.  The cell esds are taken 
 into account individually in the estimation of esds in distances, angles 
 and torsion angles; correlations between esds in cell parameters are only 
 used when they are defined by crystal symmetry.  An approximate (isotropic) 
 treatment of cell esds is used for estimating esds involving l.s. planes. 
; 
 
loop_ 
 _geom_bond_atom_site_label_1 
 _geom_bond_atom_site_label_2 
 _geom_bond_distance 
 _geom_bond_site_symmetry_2 
 _geom_bond_publ_flag 
S1 C4 1.733(3) . yes 
S1 C1 1.740(3) . yes 
C1 C2 1.371(3) . yes 
C1 C8 1.471(4) . yes 
C2 C3 1.412(4) . yes 
C3 C4 1.403(3) . yes 
C3 C7 1.422(3) 3_756 yes 
C4 C5 1.420(4) . yes 
C5 C6 1.418(3) . yes 
C5 C5 1.426(4) 3_756 yes 
C6 C7 1.367(4) . yes 
C7 C3 1.422(3) 3_756 yes 
C8 C9 1.391(4) . yes 
C8 C13 1.401(4) . yes 
C9 C10 1.382(4) . yes 
C10 C11 1.371(4) . yes 
C11 C12 1.382(4) . yes 
C12 C13 1.376(4) . yes 
 
loop_ 
 _geom_angle_atom_site_label_1 
 _geom_angle_atom_site_label_2 
 _geom_angle_atom_site_label_3 
 _geom_angle 
 _geom_angle_site_symmetry_1 
 _geom_angle_site_symmetry_3 
 _geom_angle_publ_flag 
C4 S1 C1 92.12(14) . . yes 
C2 C1 C8 129.0(2) . . yes 
C2 C1 S1 110.9(2) . . yes 
C8 C1 S1 120.1(2) . . yes 
C1 C2 C3 113.9(2) . . yes 
C4 C3 C2 112.3(2) . . yes 
C4 C3 C7 118.6(2) . 3_756 yes 
C2 C3 C7 129.1(2) . 3_756 yes 
C3 C4 C5 122.8(2) . . yes 
C3 C4 S1 110.71(19) . . yes 
C5 C4 S1 126.41(19) . . yes 
C6 C5 C4 123.1(2) . . yes 
C6 C5 C5 120.2(3) . 3_756 yes 
C4 C5 C5 116.8(3) . 3_756 yes 
C7 C6 C5 121.6(2) . . yes 
C6 C7 C3 120.0(2) . 3_756 yes 
C9 C8 C13 117.2(2) . . yes 
C9 C8 C1 122.0(2) . . yes 
C13 C8 C1 120.8(2) . . yes 
C10 C9 C8 120.9(3) . . yes 
C11 C10 C9 121.2(3) . . yes 
C10 C11 C12 118.9(3) . . yes 
C13 C12 C11 120.5(3) . . yes 
C12 C13 C8 121.3(2) . . yes 
 
loop_ 
 _geom_torsion_atom_site_label_1 
 _geom_torsion_atom_site_label_2 
 _geom_torsion_atom_site_label_3 
 _geom_torsion_atom_site_label_4 
 _geom_torsion 
 _geom_torsion_site_symmetry_1 
 _geom_torsion_site_symmetry_2 
 _geom_torsion_site_symmetry_3 
 _geom_torsion_site_symmetry_4 
 _geom_torsion_publ_flag 
C4 S1 C1 C2 1.45(17) . . . . yes 
C4 S1 C1 C8 -177.97(17) . . . . yes 
C8 C1 C2 C3 178.13(19) . . . . yes 
S1 C1 C2 C3 -1.2(2) . . . . yes 
C1 C2 C3 C4 0.3(3) . . . . yes 
C1 C2 C3 C7 -177.6(2) . . . 3_756 yes 
C2 C3 C4 C5 -175.50(18) . . . . yes 
C7 C3 C4 C5 2.6(3) 3_756 . . . yes 
C2 C3 C4 S1 0.8(2) . . . . yes 
C7 C3 C4 S1 178.94(15) 3_756 . . . yes 
C1 S1 C4 C3 -1.30(15) . . . . yes 
C1 S1 C4 C5 174.88(18) . . . . yes 
C3 C4 C5 C6 177.95(18) . . . . yes 
S1 C4 C5 C6 2.2(3) . . . . yes 
C3 C4 C5 C5 -0.3(3) . . . 3_756 yes 
S1 C4 C5 C5 -176.02(17) . . . 3_756 yes 
C4 C5 C6 C7 -179.53(19) . . . . yes 
C5 C5 C6 C7 -1.4(3) 3_756 . . . yes 
C5 C6 C7 C3 -1.0(3) . . . 3_756 yes 
C2 C1 C8 C9 161.4(2) . . . . yes 
S1 C1 C8 C9 -19.2(3) . . . . yes 
C2 C1 C8 C13 -19.1(4) . . . . yes 
S1 C1 C8 C13 160.16(19) . . . . yes 
C13 C8 C9 C10 0.9(4) . . . . yes 
C1 C8 C9 C10 -179.7(3) . . . . yes 
C8 C9 C10 C11 0.1(5) . . . . yes 
C9 C10 C11 C12 -0.7(5) . . . . yes 
C10 C11 C12 C13 0.4(4) . . . . yes 
C11 C12 C13 C8 0.6(4) . . . . yes 
C9 C8 C13 C12 -1.2(4) . . . . yes 
C1 C8 C13 C12 179.3(2) . . . . yes 
 
_diffrn_measured_fraction_theta_max    0.951 
_diffrn_reflns_theta_full              27.48 
_diffrn_measured_fraction_theta_full   0.951 
_refine_diff_density_max    0.226 
_refine_diff_density_min   -0.305 
_refine_diff_density_rms    0.062 

