###########################################################################
#
#                 Cambridge Crystallographic Data Centre
#                                CCDC 
# 
###########################################################################
#
#  This CIF contains data generated directly from an entry in the Cambridge 
#  Structural Database and will include bibliographic, chemical, crystal, 
#  experimental, refinement, and atomic coordinate data, as available.
#     
#  Copyright  2003  The Cambridge Crystallographic Data Centre
# 
#  This CIF is provided on the understanding that it is used for bona fide 
#  research purposes only.  It may contain copyright material of the CCDC
#  or of third parties, and may not be copied or further disseminated in 
#  any form, whether machine-readable or not, except for the purpose of 
#  generating routine backup copies on your local computer system.
# 
#  For further information about the CCDC, data deposition and data 
#  retrieval see <www.ccdc.cam.ac.uk>. Bona fide researchers may freely 
#  download  Mercury and enCIFer from this site to visualise CIF-encoded 
#  structures and to carry out CIF format checking respectively.
#
###########################################################################

data_CSD_CIF_POKPAG
_audit_creation_date 1995-06-12
_audit_creation_method CSD-ConQuest-V1
_database_code_CSD POKPAG
_chemical_formula_sum 'C10 H4 S6'
_chemical_formula_moiety
;
C10 H4 S6
;
_journal_coden_Cambridge 35
_journal_volume 59
_journal_year 1994
_journal_page_first 3307
_journal_name_full 'J.Org.Chem.'
loop_
_publ_author_name
"C.Rovira"
"J.Veciana"
"N.Santalo"
"J.Tarres"
"J.Cirujeda"
"E.Molins"
"J.Llorca"
"E.Espinosa"
_chemical_name_systematic
;
\d^2,2'^-Bithieno(3,4-d)-1,3-dithiole
;
_chemical_name_common
;
Dithiophene-tetrathiafulvalene
;
_chemical_melting_point 536.15
_cell_volume    570.792
_exptl_crystal_colour 'yellow'
_exptl_crystal_density_diffrn 1.84
_exptl_special_details
;
Melting point range 536.15-538.15K

;
_diffrn_ambient_temperature ?
_diffrn_special_details
;
The study was carried out at room temperature,in the range 283-303K

;
#These two values have been output from a single CSD field.
_refine_ls_R_factor_gt 0.039
_refine_ls_wR_factor_gt 0.039
_symmetry_cell_setting monoclinic
_symmetry_space_group_name_H-M 'P 21/a'
_symmetry_Int_Tables_number 14
loop_
_symmetry_equiv_pos_site_id
_symmetry_equiv_pos_as_xyz
1 x,y,z
2 1/2-x,1/2+y,-z
3 -x,-y,-z
4 -1/2+x,-1/2-y,z
_cell_length_a 10.906(2)
_cell_length_b 3.991(1)
_cell_length_c 14.030(3)
_cell_angle_alpha 90
_cell_angle_beta 110.82(1)
_cell_angle_gamma 90
_cell_formula_units_Z 2
loop_
_atom_type_symbol
_atom_type_radius_bond
C 0.68
H 0.23
S 1.02
loop_
_atom_site_label
_atom_site_type_symbol
_atom_site_fract_x
_atom_site_fract_y
_atom_site_fract_z
S1 S 1.0140(1) 0.1669(1) 0.3552(1)
S2 S 0.8029(1) -0.1800(1) 0.4089(1)
S3 S 0.6730(1) 0.0219(2) 0.0896(1)
C1 C 0.9615(2) -0.0029(4) 0.4503(1)
C2 C 0.7655(2) -0.0751(5) 0.2811(1)
C3 C 0.6538(2) -0.1244(6) 0.1989(2)
C4 C 0.8310(2) 0.1514(6) 0.1537(2)
C5 C 0.8669(2) 0.0844(5) 0.2553(1)
H1 H 0.5593(2) -0.2339(6) 0.1882(2)
H2 H 0.8793(2) 0.2653(6) 0.1066(2)
C1B* C 1.0385(2) 0.0029(4) 0.5497(1)
S1B* S 0.9860(1) -0.1669(1) 0.6448(1)
S2B* S 1.1971(1) 0.1800(1) 0.5911(1)
C5B* C 1.1331(2) -0.0844(5) 0.7447(1)
C2B* C 1.2345(2) 0.0751(5) 0.7189(1)
C4B* C 1.1690(2) -0.1514(6) 0.8463(2)
C3B* C 1.3462(2) 0.1244(6) 0.8011(2)
S3B* S 1.3270(1) -0.0219(2) 0.9104(1)
H2B* H 1.1207(2) -0.2653(6) 0.8934(2)
H1B* H 1.4407(2) 0.2339(6) 0.8118(2)
#END

