
#######################################################################
#
#                 Cambridge Crystallographic Data Centre
#                                CCDC 
#
#######################################################################
#
# If this CIF has been generated directly or indirectly from an entry in the 
# Cambridge Structural Database, then it will include bibliographic, chemical, 
# crystal, experimental, refinement or atomic coordinate data resulting from 
# the CCDC's data processing and validation procedures. Files generated from 
# CSD entries are Copyright 2010 Cambridge Crystallographic Data Centre. They 
# may be used in bona fide research applications only, and may not be copied or 
# further disseminated in any form, whether machine-readable or not, except for 
# the purposes of generating routine backup copies on your local computer 
# system.
# 
# Files arising from any other source may also contain material that is the 
# copyright of third parties, including the originator, and you should check 
# with the originator concerning the permitted uses of the information 
# contained in this CIF.
#
# For further information on the CCDC and the free tools enCIFer and Mercury
# for validating and visualising CIF files, please visit www.ccdc.cam.ac.uk
#
#######################################################################

data_TTFTCQ01
_audit_creation_date             1974-07-18
_journal_coeditor_code           'IUCr A10935'
_database_code_NBS               529059
_chemical_formula_moiety         'C6 H4 S4 1+,C12 H4 N4 1-'
_chemical_name_systematic        
\D^2,2'^-Bis-1,3-dithiole-7,7,8,8-tetracyanoquinodimethanide
_journal_coden_Cambridge         107
_journal_volume                  30
_journal_year                    1974
_journal_page_first              763
_journal_name_full               
'Acta Crystallogr.,Sect.B:Struct.Crystallogr.Cryst.Chem.'
loop_
_publ_author_name
T.J.Kistenmacher
T.E.Phillips
D.O.Cowan
_chemical_absolute_configuration unk
_diffrn_ambient_temperature      295
_exptl_crystal_density_meas      1.615
_exptl_crystal_density_diffrn    1.615
#These two values have been output from a single CSD field.
_refine_ls_R_factor_gt           0.044
_refine_ls_wR_factor_gt          0.044
_diffrn_radiation_probe          x-ray
_symmetry_cell_setting           monoclinic
_symmetry_space_group_name_H-M   'P 21/c'
_symmetry_Int_Tables_number      14
loop_
_symmetry_equiv_pos_site_id
_symmetry_equiv_pos_as_xyz
1 x,y,z
2 -x,1/2+y,1/2-z
3 -x,-y,-z
4 x,1/2-y,1/2+z
_cell_length_a                   12.298(6)
_cell_length_b                   3.819(2)
_cell_length_c                   18.468(8)
_cell_angle_alpha                90
_cell_angle_beta                 104.46(4)
_cell_angle_gamma                90
_cell_volume                     839.893
_cell_formula_units_Z            2
loop_
_atom_site_label
_atom_site_type_symbol
_atom_site_fract_x
_atom_site_fract_y
_atom_site_fract_z
C1 C -0.00120 -0.34150 0.15980
C2 C 0.10720 -0.34150 0.16220
C3 C 0.01140 -0.07660 0.03460
H1 H -0.03900 -0.41900 0.19600
H2 H 0.16500 -0.41200 0.20800
S1 S -0.09350 -0.18350 0.07910
S2 S 0.14730 -0.18110 0.08500
C3B C -0.0114 0.0766 -0.0346
S1B S 0.0935 0.1835 -0.0791
S2B S -0.1473 0.1811 -0.085
C1B C 0.0012 0.3415 -0.1598
C2B C -0.1072 0.3415 -0.1622
H1B H 0.039 0.419 -0.196
H2B H -0.165 0.412 -0.208
C4 C 0.45930 -0.49020 0.16570
C5 C 0.65740 -0.47530 0.16560
C6 C 0.54690 -0.59230 0.13190
C7 C 0.52410 -0.79520 0.06660
C8 C 0.41160 -0.90820 0.03140
C9 C 0.61070 -0.89710 0.03200
H3 H 0.35600 -0.85000 0.05800
H4 H 0.68500 -0.83100 0.06500
N1 N 0.38570 -0.40820 0.18980
N2 N 0.74820 -0.37960 0.19020
C9B C 0.3893 -1.1029 -0.032
C8B C 0.5884 -1.0918 -0.0314
C7B C 0.4759 -1.2048 -0.0666
H4B H 0.315 -1.169 -0.065
H3B H 0.644 -1.15 -0.058
C6B C 0.4531 -1.4077 -0.1319
C4B C 0.5407 -1.5098 -0.1657
C5B C 0.3426 -1.5247 -0.1656
N1B N 0.6143 -1.5918 -0.1898
N2B N 0.2518 -1.6204 -0.1902

#END

